 vasp.5.4.4.18Apr17-6-g9f103f2a35 (build Aug 03 2021 20:12:39) complex

 executed on             LinuxIFC date 2021.08.18  05:06:59

 INCAR:
 POTCAR:    PAW_PBE Cs_sv 08Apr2002
 POTCAR:    PAW_PBE Nb_pv 08Apr2002
 POTCAR:    PAW_PBE S 06Sep2000
 POTCAR:    PAW_PBE Br 06Sep2000
 POTCAR:    PAW_PBE Cs_sv 08Apr2002
   VRHFIN =Cs: 5s5p6s

   TITEL  = PAW_PBE Cs_sv 08Apr2002
   POMASS =  132.900; ZVAL   =    9.000    mass and valenz
   ENMAX  =  220.318; ENMIN  =  165.238 eV

 POTCAR:    PAW_PBE Nb_pv 08Apr2002
   VRHFIN =Nb: 4p5s4d

   TITEL  = PAW_PBE Nb_pv 08Apr2002
   POMASS =   92.000; ZVAL   =   11.000    mass and valenz
   ENMAX  =  208.608; ENMIN  =  156.456 eV

 POTCAR:    PAW_PBE S 06Sep2000
   VRHFIN =S : s2p4

   TITEL  = PAW_PBE S 06Sep2000
   POMASS =   32.066; ZVAL   =    6.000    mass and valenz
   ENMAX  =  258.689; ENMIN  =  194.016 eV

 POTCAR:    PAW_PBE Br 06Sep2000
   VRHFIN =Br: s2p5

   TITEL  = PAW_PBE Br 06Sep2000
   POMASS =   79.904; ZVAL   =    7.000    mass and valenz
   ENMAX  =  216.285; ENMIN  =  162.214 eV

 Optimization of the real space projectors (new method)

 maximal supplied QI-value         = 15.12
 optimisation between [QCUT,QGAM] = [ 11.34, 22.83] = [ 36.00,145.93] Ry
 Optimized for a Real-space Cutoff    1.56 Angstroem

   l    n(q)    QCUT    max X(q) W(low)/X(q) W(high)/X(q)  e(spline)
   0     11    11.338    25.322    0.46E-04    0.79E-04    0.58E-06
   0     11    11.338    99.187    0.44E-04    0.77E-04    0.56E-06
   1     10    11.338    11.761    0.13E-03    0.11E-03    0.42E-06
   1     10    11.338     8.275    0.14E-03    0.11E-03    0.46E-06
   2     10    11.338     3.829    0.13E-03    0.23E-03    0.18E-06
 Optimization of the real space projectors (new method)

[...]

   l    n(q)    QCUT    max X(q) W(low)/X(q) W(high)/X(q)  e(spline)
   0      8    11.310   187.594    0.16E-03    0.19E-03    0.53E-07
   0      8    11.310   164.243    0.16E-03    0.19E-03    0.53E-07
   1      8    11.310    67.533    0.18E-03    0.19E-03    0.92E-07
   1      8    11.310    50.729    0.18E-03    0.19E-03    0.90E-07
 Optimization of the real space projectors (new method)

 maximal supplied QI-value         = 17.95
 optimisation between [QCUT,QGAM] = [ 11.31, 22.80] = [ 35.82,145.56] Ry
 Optimized for a Real-space Cutoff    1.31 Angstroem

   l    n(q)    QCUT    max X(q) W(low)/X(q) W(high)/X(q)  e(spline)
   0      9    11.310   175.082    0.48E-04    0.59E-04    0.71E-07
   0      9    11.310   174.004    0.47E-04    0.57E-04    0.69E-07
   1      8    11.310    54.315    0.11E-03    0.13E-03    0.93E-07
   1      8    11.310    42.441    0.10E-03    0.13E-03    0.91E-07
   2      8    11.310     3.596    0.18E-04    0.69E-04    0.67E-07
  PAW_PBE Cs_sv 08Apr2002               :
  PAW_PBE Nb_pv 08Apr2002               :
  PAW_PBE S 06Sep2000                   :
  PAW_PBE Br 06Sep2000                  :

 POSCAR: Cs4 Nb12 S4 Br28
  positions in direct lattice
 exchange correlation table for  LEXCH =        8
   RHO(1)=    0.500       N(1)  =     2000
   RHO(2)=  100.500       N(2)  =     4000

 ion  position               nearest neighbor table
   1  0.405  0.769  0.885-
   2  0.095  0.269  0.885-
   3  0.905  0.731  0.115-
   4  0.595  0.231  0.115-
   5  0.828  0.135  0.579-  19 2.47  36 2.61  34 2.62  28 2.66  17 2.68  44 2.80  15 2.88  14 2.91
                             6 3.12
   6  0.672  0.037  0.579-  17 2.48  35 2.61  41 2.62  28 2.67  19 2.67  45 2.80   8 2.88  10 2.92
                             5 3.12
   7  0.172  0.463  0.421-  18 2.48  31 2.61  48 2.62  46 2.67  20 2.67  40 2.80  13 2.88  12 2.92
                            11 3.12
   8  0.672  0.635  0.579-  17 2.47  35 2.61  32 2.62  42 2.66  19 2.68  45 2.80   6 2.88  10 2.91
                            15 3.12
   9  0.330  0.213  0.175-  20 2.39  26 2.60  43 2.60  33 2.73  29 2.74  30 2.76  11 2.91  16 2.92

  10  0.670  0.787  0.825-  17 2.39  41 2.60  32 2.60  21 2.73  23 2.74  25 2.76   8 2.91   6 2.92

  11  0.328  0.365  0.421-  20 2.47  22 2.61  43 2.62  46 2.66  18 2.68  47 2.80  16 2.88   9 2.91
                             7 3.12
  12  0.170  0.713  0.175-  18 2.39  48 2.60  24 2.60  29 2.73  33 2.74  37 2.76  13 2.91   7 2.92

  13  0.172  0.865  0.421-  18 2.47  31 2.61  24 2.62  38 2.66  20 2.68  40 2.80   7 2.88  12 2.91
                            16 3.12
  14  0.830  0.287  0.825-  19 2.39  39 2.60  34 2.60  23 2.73  21 2.74  27 2.76   5 2.91  15 2.92

  15  0.828  0.537  0.579-  19 2.48  36 2.61  39 2.62  42 2.67  17 2.67  44 2.80   5 2.88  14 2.92
                             8 3.12
  16  0.328  0.963  0.421-  20 2.48  22 2.61  26 2.62  38 2.67  18 2.67  47 2.80  11 2.88   9 2.92
                            13 3.12
  17  0.762  0.817  0.673-  10 2.39   8 2.47   6 2.48  15 2.67   5 2.68
  18  0.262  0.683  0.327-  12 2.39  13 2.47   7 2.48  16 2.67  11 2.68
  19  0.738  0.317  0.673-  14 2.39   5 2.47  15 2.48   6 2.67   8 2.68
  20  0.238  0.183  0.327-   9 2.39  11 2.47  16 2.48   7 2.67  13 2.68
  21  0.750  0.011  0.956-  10 2.73  14 2.74
  22  0.414  0.138  0.555-  11 2.61  16 2.61
  23  0.750  0.511  0.956-  14 2.73  10 2.74
  24  0.079  0.949  0.241-  12 2.60  13 2.62
  25  0.599  0.741  0.057-  10 2.76
  26  0.420  0.950  0.239-   9 2.60  16 2.62
  27  0.901  0.241  0.057-  14 2.76
  28  0.750  0.125  0.369-   5 2.66   6 2.67
  29  0.250  0.489  0.044-  12 2.73   9 2.74
  30  0.401  0.259  0.943-   9 2.76
  31  0.086  0.638  0.555-  13 2.61   7 2.61
  32  0.579  0.551  0.759-  10 2.60   8 2.62
  33  0.250  0.989  0.044-   9 2.73  12 2.74
  34  0.921  0.051  0.759-  14 2.60   5 2.62
  35  0.586  0.862  0.445-   8 2.61   6 2.61
  36  0.914  0.362  0.445-   5 2.61  15 2.61
  37  0.099  0.759  0.943-  12 2.76
  38  0.250  0.875  0.631-  13 2.66  16 2.67
  39  0.920  0.550  0.761-  14 2.60  15 2.62
  40  0.101  0.143  0.534-   7 2.80  13 2.80
  41  0.580  0.050  0.761-  10 2.60   6 2.62
  42  0.750  0.625  0.369-   8 2.66  15 2.67
  43  0.421  0.449  0.241-   9 2.60  11 2.62
  44  0.899  0.857  0.466-  15 2.80   5 2.80
  45  0.601  0.357  0.466-   6 2.80   8 2.80
  46  0.250  0.375  0.631-  11 2.66   7 2.67
  47  0.399  0.643  0.534-  16 2.80  11 2.80
  48  0.080  0.450  0.239-  12 2.60   7 2.62

  LATTYP: Found a simple monoclinic cell.
 ALAT       =    13.3731005516
 B/A-ratio  =     1.4635471073
 C/A-ratio  =     1.4040276409
 COS(beta)  =    -0.9560312962

  Lattice vectors:

 A1 = (   0.0000000000,  -8.5489802464, -10.2837130993)
 A2 = ( -19.5721626282,   0.0000000000,   0.0000000000)
 A3 = (   0.0000000000,  15.7095842465,  10.2837130993)

Analysis of symmetry for initial positions (statically):
 Subroutine PRICEL returns:
 Original cell was already a primitive cell.

 Routine SETGRP: Setting up the symmetry group for a
 simple monoclinic supercell.

 Subroutine GETGRP returns: Found  4 space group operations
 (whereof  2 operations were pure point group operations)
 out of a pool of  4 trial point group operations.

The static configuration has the point symmetry S_2 .
 The point group associated with its full space group is C_2h.

Analysis of symmetry for dynamics (positions and initial velocities):
 Subroutine PRICEL returns:
 Original cell was already a primitive cell.

 Routine SETGRP: Setting up the symmetry group for a
 simple monoclinic supercell.

 Subroutine GETGRP returns: Found  4 space group operations
 (whereof  2 operations were pure point group operations)
 out of a pool of  4 trial point group operations.

The dynamic configuration has the point symmetry S_2 .
 The point group associated with its full space group is C_2h.

 Subroutine INISYM returns: Found  4 space group operations
 (whereof  2 operations are pure point group operations),
 and found     1 'primitive' translations

 KPOINTS: Automatically generated mesh
  k-points in reciprocal lattice
Space group operators:
 irot       det(A)        alpha          n_x          n_y          n_z        tau_x        tau_y        tau_z
    1     1.000000     0.000000     1.000000     0.000000     0.000000     0.000000     0.000000     0.000000
    2    -1.000000     0.000000     1.000000     0.000000     0.000000     0.000000     0.000000     0.000000
    3     1.000000   180.000000     1.000000     0.000000     0.000000    -0.500000     0.500000    -0.000000
    4    -1.000000   180.000000     1.000000     0.000000     0.000000    -0.500000     0.500000     0.000000

 Subroutine IBZKPT_HF returns following result:

 Found     41 k-points in 1st BZ
 the following     41 k-points will be used (e.g. in the exchange kernel)
 Following reciprocal coordinates:   # in IRBZ
  0.000000  0.000000  0.000000    0.12500000   1 t-inv F
  0.500000  0.000000  0.000000    0.12500000   2 t-inv F
  0.000000  0.500000  0.000000    0.12500000   3 t-inv F
  0.500000  0.500000  0.000000    0.12500000   4 t-inv F
  0.000000  0.000000  0.500000    0.12500000   5 t-inv F
  0.500000  0.000000  0.500000    0.12500000   6 t-inv F
  0.000000  0.500000  0.500000    0.12500000   7 t-inv F
  0.500000  0.500000  0.500000    0.12500000   8 t-inv F
  0.000000  0.300000  0.500000    0.00000000   9 t-inv F
  0.000000  0.320000  0.500000    0.00000000  10 t-inv F
  0.000000  0.340000  0.500000    0.00000000  11 t-inv F
  0.000000  0.360000  0.500000    0.00000000  12 t-inv F
  0.000000  0.380000  0.500000    0.00000000  13 t-inv F
  0.000000  0.400000  0.500000    0.00000000  14 t-inv F
  0.000000  0.420000  0.500000    0.00000000  15 t-inv F
  0.000000  0.440000  0.500000    0.00000000  16 t-inv F
  0.000000  0.460000  0.500000    0.00000000  17 t-inv F
  0.000000  0.480000  0.500000    0.00000000  18 t-inv F
  0.000000  0.500000  0.500000    0.00000000  19 t-inv F
  0.000000  0.500000  0.500000    0.00000000  20 t-inv F
  0.050000  0.500000  0.450000    0.00000000  21 t-inv F
  0.100000  0.500000  0.400000    0.00000000  22 t-inv F
  0.150000  0.500000  0.350000    0.00000000  23 t-inv F
  0.200000  0.500000  0.300000    0.00000000  24 t-inv F
  0.250000  0.500000  0.250000    0.00000000  25 t-inv F
  0.300000  0.500000  0.200000    0.00000000  26 t-inv F
  0.350000  0.500000  0.150000    0.00000000  27 t-inv F
  0.400000  0.500000  0.100000    0.00000000  28 t-inv F
  0.450000  0.500000  0.050000    0.00000000  29 t-inv F
  0.500000  0.500000  0.000000    0.00000000  30 t-inv F
  0.000000  0.500000  0.000000    0.00000000  31 t-inv F
  0.000000  0.480000  0.000000    0.00000000  32 t-inv F
  0.000000  0.460000  0.000000    0.00000000  33 t-inv F
  0.000000  0.440000  0.000000    0.00000000  34 t-inv F
  0.000000  0.420000  0.000000    0.00000000  35 t-inv F
  0.000000  0.400000  0.000000    0.00000000  36 t-inv F
  0.000000  0.380000  0.000000    0.00000000  37 t-inv F
  0.000000  0.360000  0.000000    0.00000000  38 t-inv F
  0.000000  0.340000  0.000000    0.00000000  39 t-inv F
  0.000000  0.320000  0.000000    0.00000000  40 t-inv F
  0.000000  0.300000  0.000000    0.00000000  41 t-inv F

 SYSTEM =  MoTe2
 POSCAR =  Cs4 Nb12 S4 Br28

 Startparameter for this run:
   NWRITE =      2    write-flag & timer
   PREC   = accura    normal or accurate (medium, high low for compatibility)
[...]
  atomic energy  EATOM  =     26088.35735181
  free energy    TOTEN  =      -282.38419911 eV

  energy without entropy =     -282.38419911  energy(sigma->0) =     -282.38419911
  exchange ACFDT corr.  =        -2.83640647  see jH, gK, PRB 81, 115126

  average scaling for gradient   0.5622

 average (electrostatic) potential at core
  the test charge radii are     1.1312  1.2125  0.9698  1.0178
  (the norm of the test charge is              1.0000)
       1 -43.8014       2 -43.8013       3 -47.7603       4 -47.7604       5 -42.1169
       6 -42.1527       7 -27.5411       8 -42.1175       9 -28.8973      10 -41.0038
      11 -27.5827      12 -28.8963      13 -27.5823      14 -41.0021      15 -42.1486
      16 -27.5430      17 -93.7761      18 -79.9757      19 -93.7761      20 -79.9752
      21 -65.0590      22 -57.8263      23 -65.0589      24 -57.6839      25 -61.4499
      26 -57.6892      27 -61.4497      28 -65.2780      29 -55.6519      30 -57.0289
      31 -57.8255      32 -63.8338      33 -55.6516      34 -63.8333      35 -63.4480
      36 -63.4469      37 -57.0284      38 -55.3184      39 -63.8475      40 -56.9084
      41 -63.8486      42 -65.2777      43 -57.6840      44 -62.7255      45 -62.7263
      46 -55.3182      47 -56.9095      48 -57.6884

 E-fermi :   2.2708     XC(G=0):  -7.1059     alpha+bet : -7.7399

 k-point     1 :       0.0000    0.0000    0.0000
  band No.  band energies     occupation
      1     -39.6914      2.00000
      2     -39.6245      2.00000
      3     -39.5251      2.00000
      4     -39.5222      2.00000
      5     -39.4359      2.00000
      6     -39.3922      2.00000
      7     -39.3824      2.00000
      8     -39.3712      2.00000
      9     -39.2627      2.00000
     10     -39.2427      2.00000
     11     -39.0200      2.00000
     12     -38.9933      2.00000
     13     -38.3744      2.00000
     14     -38.3701      2.00000
     15     -38.3212      2.00000
     16     -38.3164      2.00000
     17     -38.0419      2.00000
     18     -38.0402      2.00000
     19     -26.5645      2.00000
     20     -26.5588      2.00000
     21     -26.3857      2.00000
     22     -26.3788      2.00000
     23     -26.2512      2.00000
     24     -26.2502      2.00000
     25     -25.3835      2.00000
     26     -25.3538      2.00000
     27     -25.3085      2.00000
     28     -25.2833      2.00000
     29     -25.1102      2.00000
     30     -25.0821      2.00000
     31     -25.0586      2.00000
     32     -25.0517      2.00000
     33     -25.0228      2.00000
     34     -24.9831      2.00000
     35     -24.8192      2.00000
     36     -24.7992      2.00000
     37     -23.4241      2.00000
     38     -23.4231      2.00000
     39     -20.7352      2.00000
     40     -20.1618      2.00000
     41     -20.1442      2.00000
     42     -19.9225      2.00000
     43     -19.8461      2.00000
     44     -19.6047      2.00000
     45     -19.4653      2.00000
     46     -19.4652      2.00000
     47     -18.9301      2.00000
     48     -18.8532      2.00000
     49     -18.5851      2.00000
     50     -18.5735      2.00000
     51     -18.3734      2.00000
     52     -18.3486      2.00000
     53     -17.5949      2.00000
     54     -17.5375      2.00000
     55     -16.2127      2.00000
     56     -16.1978      2.00000
     57     -12.5980      2.00000
     58     -12.5763      2.00000
     59     -12.3696      2.00000
     60     -12.3653      2.00000
[...]
    218       7.6652      0.00000
    219       8.1252      0.00000
    220       8.6971      0.00000
    221       8.9628      0.00000
    222       9.1866      0.00000
    223       9.3425      0.00000
    224       9.8714      0.00000
    225       9.9541      0.00000
    226       9.9647      0.00000
    227      10.1054      0.00000
    228      10.3742      0.00000
    229      10.4881      0.00000
    230      10.5214      0.00000
    231      10.7051      0.00000
    232      11.0716      0.00000

[...]

 k-point    41 :       0.0000    0.3000    0.0000
  band No.  band energies     occupation
      1     -39.6749      2.00000
      2     -39.6329      2.00000
      3     -39.5256      2.00000
      4     -39.5230      2.00000
      5     -39.4245      2.00000
      6     -39.3932      2.00000
      7     -39.3899      2.00000
      8     -39.3763      2.00000
      9     -39.2556      2.00000
     10     -39.2450      2.00000
     11     -39.0203      2.00000
     12     -39.0042      2.00000
     13     -38.3739      2.00000
     14     -38.3710      2.00000
     15     -38.3204      2.00000
     16     -38.3173      2.00000
     17     -38.0416      2.00000
     18     -38.0399      2.00000
     19     -26.5633      2.00000
     20     -26.5600      2.00000
     21     -26.3845      2.00000
     22     -26.3804      2.00000
     23     -26.2511      2.00000
     24     -26.2501      2.00000
     25     -25.3666      2.00000
     26     -25.3398      2.00000
     27     -25.3076      2.00000
     28     -25.3045      2.00000
     29     -25.0935      2.00000
     30     -25.0792      2.00000
     31     -25.0635      2.00000
     32     -25.0582      2.00000
     33     -25.0141      2.00000
     34     -24.9912      2.00000
     35     -24.8258      2.00000
     36     -24.8135      2.00000
     37     -23.4234      2.00000
     38     -23.4228      2.00000
     39     -20.6208      2.00000
     40     -20.2764      2.00000
     41     -20.1065      2.00000
     42     -19.9605      2.00000
     43     -19.7971      2.00000
     44     -19.6590      2.00000
     45     -19.4648      2.00000
     46     -19.4646      2.00000
     47     -18.8565      2.00000
     48     -18.8072      2.00000
     49     -18.6537      2.00000
     50     -18.6418      2.00000
     51     -18.3624      2.00000
     52     -18.3489      2.00000
     53     -17.5986      2.00000
     54     -17.5616      2.00000
     55     -16.2177      2.00000
     56     -16.2092      2.00000
     57     -12.5343      2.00000
     58     -12.5200      2.00000
     59     -12.3530      2.00000
     60     -12.3523      2.00000
[...]
    218       7.5538      0.00000
    219       7.7780      0.00000
    220       8.1251      0.00000
    221       8.2160      0.00000
    222       8.9333      0.00000
    223       8.9487      0.00000
    224       9.1348      0.00000
    225       9.1931      0.00000
    226       9.2852      0.00000
    227       9.3077      0.00000
    228       9.3577      0.00000
    229       9.7274      0.00000
    230      10.2395      0.00000
    231      10.7555      0.00000
    232      11.0681      0.00000

 soft charge-density along one line, spin component           1
         0         1         2         3         4         5         6         7         8         9
 total charge-density along one line

------------------------ aborting loop because EDIFF is reached ----------------------------------------

 VOLUME and BASIS-vectors are now :
  energy-cutoff  :      500.00
  volume of cell :     1441.25
      direct lattice vectors                 reciprocal lattice vectors
    19.572162628  0.000000000  0.000000000     0.051092974  0.000000000  0.000000000
     0.000000000  7.160604000  0.000000000     0.000000000  0.139653024 -0.018854176
     0.000000000  1.388376246 10.283713099     0.000000000  0.000000000  0.097241141

  length of vectors
    19.572162628  7.160604000 10.377010345     0.051092974  0.140920002  0.097241141

 FORCES acting on ions:
    Electron-Ion                     Ewald-Force                    Non-Local-Force
   -.311E+02 0.395E+01 0.128E+02   0.497E+02 -.429E+01 -.152E+02   0.164E+00 0.924E-01 -.560E-01
   0.311E+02 0.395E+01 0.128E+02   -.497E+02 -.429E+01 -.152E+02   -.164E+00 0.924E-01 -.560E-01
   -.686E+02 -.435E+01 -.176E+02   0.497E+02 0.429E+01 0.152E+02   0.164E+00 -.924E-01 0.560E-01
   0.686E+02 -.434E+01 -.176E+02   -.497E+02 0.429E+01 0.152E+02   -.164E+00 -.924E-01 0.560E-01
   -.295E+03 0.131E+03 0.204E+03   0.273E+03 -.128E+03 -.197E+03   -.545E+00 0.461E-01 0.336E+00
   0.290E+03 -.130E+03 0.198E+03   -.268E+03 0.126E+03 -.190E+03   0.557E+00 -.649E-01 0.399E+00
   0.246E+03 0.122E+03 -.182E+03   -.268E+03 -.126E+03 0.190E+03   0.557E+00 0.649E-01 -.399E+00
   0.295E+03 0.131E+03 0.204E+03   -.273E+03 -.128E+03 -.197E+03   0.545E+00 0.461E-01 0.336E+00
   -.170E+03 -.182E+01 0.396E+03   0.187E+03 0.192E+01 -.411E+03   -.437E+00 -.781E-02 0.882E+00
   0.204E+03 0.194E+01 -.429E+03   -.187E+03 -.192E+01 0.411E+03   0.437E+00 0.781E-02 -.882E+00
   -.251E+03 -.124E+03 -.189E+03   0.273E+03 0.128E+03 0.197E+03   -.545E+00 -.461E-01 -.336E+00
   0.170E+03 -.182E+01 0.396E+03   -.187E+03 0.192E+01 -.411E+03   0.437E+00 -.781E-02 0.882E+00
   0.251E+03 -.124E+03 -.189E+03   -.273E+03 0.128E+03 0.197E+03   0.545E+00 -.461E-01 -.336E+00
   -.204E+03 0.193E+01 -.429E+03   0.187E+03 -.192E+01 0.411E+03   -.437E+00 0.781E-02 -.882E+00
   -.290E+03 -.130E+03 0.198E+03   0.268E+03 0.126E+03 -.190E+03   -.557E+00 -.649E-01 0.399E+00
   -.246E+03 0.122E+03 -.182E+03   0.268E+03 -.126E+03 0.190E+03   -.557E+00 0.649E-01 -.399E+00
   -.170E+03 -.594E+00 -.809E+02   0.168E+03 0.545E+00 0.802E+02   -.774E+00 0.291E-01 -.247E+01
   -.163E+03 0.564E+00 0.753E+02   0.168E+03 -.545E+00 -.802E+02   -.774E+00 -.291E-01 0.247E+01
   0.170E+03 -.597E+00 -.809E+02   -.168E+03 0.545E+00 0.802E+02   0.774E+00 0.291E-01 -.247E+01
   0.163E+03 0.561E+00 0.753E+02   -.168E+03 -.545E+00 -.802E+02   0.774E+00 -.291E-01 0.247E+01
   -.993E+00 0.136E+00 -.300E+03   0.972E+00 -.133E+00 0.293E+03   -.102E-01 0.614E-02 -.169E+01
   -.207E+03 -.121E+02 -.219E+03   0.231E+03 0.121E+02 0.228E+03   -.146E+01 -.722E-01 -.890E+00
   0.990E+00 0.138E+00 -.300E+03   -.972E+00 -.133E+00 0.293E+03   0.102E-01 0.614E-02 -.169E+01
   0.293E+03 -.108E+03 0.124E+03   -.316E+03 0.111E+03 -.128E+03   0.135E+01 -.803E+00 0.372E+00
   0.126E+03 0.241E+01 -.160E+03   -.111E+03 -.234E+01 0.157E+03   0.500E+00 0.104E-01 -.127E+01
   -.287E+03 0.108E+03 0.130E+03   0.310E+03 -.111E+03 -.134E+03   -.135E+01 0.808E+00 0.392E+00
   -.126E+03 0.241E+01 -.160E+03   0.111E+03 -.234E+01 0.157E+03   -.500E+00 0.104E-01 -.127E+01
   -.660E+01 0.774E+00 0.388E+03   0.669E+01 -.840E+00 -.377E+03   -.144E+00 0.747E-01 0.181E+01
   -.900E+00 -.134E+00 0.281E+03   0.972E+00 0.133E+00 -.293E+03   -.102E-01 -.614E-02 0.169E+01
   -.952E+02 -.223E+01 0.151E+03   0.111E+03 0.234E+01 -.157E+03   -.500E+00 -.104E-01 0.127E+01
   0.207E+03 -.121E+02 -.219E+03   -.231E+03 0.121E+02 0.228E+03   0.146E+01 -.722E-01 -.890E+00
   0.337E+03 0.112E+03 -.132E+03   -.316E+03 -.111E+03 0.128E+03   0.135E+01 0.803E+00 -.372E+00
   0.904E+00 -.132E+00 0.281E+03   -.972E+00 0.133E+00 -.293E+03   0.102E-01 -.614E-02 0.169E+01
   -.337E+03 0.112E+03 -.132E+03   0.316E+03 -.111E+03 0.128E+03   -.135E+01 0.803E+00 -.372E+00
   0.252E+03 0.117E+02 0.235E+03   -.231E+03 -.121E+02 -.228E+03   0.146E+01 0.722E-01 0.890E+00
   -.252E+03 0.117E+02 0.235E+03   0.231E+03 -.121E+02 -.228E+03   -.146E+01 0.722E-01 0.890E+00
   0.952E+02 -.223E+01 0.151E+03   -.111E+03 0.234E+01 -.157E+03   0.500E+00 -.104E-01 0.127E+01
   0.645E+01 -.730E+00 -.362E+03   -.669E+01 0.839E+00 0.377E+03   0.144E+00 -.747E-01 -.181E+01
   -.331E+03 -.112E+03 -.138E+03   0.310E+03 0.111E+03 0.134E+03   -.135E+01 -.808E+00 -.392E+00
   0.190E+03 0.112E+02 -.174E+03   -.212E+03 -.111E+02 0.182E+03   0.146E+01 0.446E-01 -.102E+01
   0.331E+03 -.112E+03 -.138E+03   -.310E+03 0.111E+03 0.134E+03   0.135E+01 -.808E+00 -.392E+00
   0.659E+01 0.775E+00 0.388E+03   -.669E+01 -.840E+00 -.377E+03   0.144E+00 0.747E-01 0.181E+01
   -.293E+03 -.108E+03 0.124E+03   0.316E+03 0.111E+03 -.128E+03   -.135E+01 -.803E+00 0.372E+00
   -.232E+03 -.109E+02 0.188E+03   0.212E+03 0.111E+02 -.182E+03   -.146E+01 -.446E-01 0.102E+01
   0.232E+03 -.109E+02 0.188E+03   -.212E+03 0.111E+02 -.182E+03   0.146E+01 -.446E-01 0.102E+01
   -.644E+01 -.729E+00 -.362E+03   0.669E+01 0.840E+00 0.377E+03   -.144E+00 -.747E-01 -.181E+01
   -.190E+03 0.112E+02 -.174E+03   0.212E+03 -.111E+02 0.182E+03   -.146E+01 0.446E-01 -.102E+01
   0.287E+03 0.108E+03 0.130E+03   -.310E+03 -.111E+03 -.134E+03   0.135E+01 0.808E+00 0.392E+00
   -.902E-02 -.453E+00 -.111E+01   -.853E-12 -.171E-12 0.483E-12   0.222E-15 0.000E+00 -.111E-15

 POSITION                                       TOTAL-FORCE (eV/Angst)
      7.93068      6.73267      9.09697         0.001763     -0.054998     -0.088939
      1.85540      3.15237      9.09697        -0.001763     -0.054998     -0.088939
     17.71676      5.39661      1.18674         0.001763      0.054998      0.088939
     11.64148      1.81631      1.18674        -0.001763      0.054998      0.088939
     16.19958      1.76817      5.95167        -0.468351     -0.977693     -0.007887
     13.15797      1.07211      5.95660         0.512747      0.951211     -0.035682
      3.37189      3.89657      4.32711         0.512747     -0.951211      0.035682
     13.15866      5.34847      5.95167         0.468351     -0.977693     -0.007887
      6.46128      1.76834      1.79542         0.235186      0.044655      0.593184
     13.11088      6.78064      8.48829        -0.235186     -0.044655     -0.593184
      6.41350      3.20051      4.33205        -0.468351      0.977693      0.007887
      3.32480      5.34864      1.79542        -0.235186      0.044655      0.593184
      3.37258      6.78081      4.33205         0.468351      0.977693      0.007887
     16.24736      3.20034      8.48829         0.235186     -0.044655     -0.593184
     16.20027      4.65241      5.95660        -0.512747      0.951211     -0.035682
      6.41419      7.47687      4.32711        -0.512747     -0.951211      0.035682
     14.92015      6.78842      6.92361         0.774079     -0.003673     -0.574248
      5.13407      5.34086      3.36010         0.774079      0.003673      0.574248
     14.43809      3.20812      6.92361        -0.774079     -0.003673     -0.574248
      4.65201      1.76056      3.36010        -0.774079      0.003673      0.574248
     14.68075      1.40615      9.83560         0.013638      0.008512      0.145723
      8.10217      1.75651      5.70986        -0.311554      0.065865     -0.137633
     14.67750      4.98645      9.83560        -0.013638      0.008512      0.145723
      1.55466      7.13240      2.47606         0.103971      0.256238      0.167355
     11.71533      5.38457      0.58884        -0.090106     -0.011216     -0.020826
      8.22303      7.13289      2.45774        -0.113642     -0.256594      0.124077
     17.64292      1.80427      0.58884         0.090106     -0.011216     -0.020826
     14.68245      1.40979      3.79617         0.012337     -0.004790      0.203298
      4.89467      3.56253      0.44811         0.013638     -0.008512     -0.145723
      7.85683      3.16441      9.69488         0.090106      0.011216      0.020826
      1.68391      5.33681      5.70986         0.311554      0.065865     -0.137633
     11.34074      4.99688      7.80765         0.103971     -0.256238     -0.167355
      4.89142      7.14283      0.44811        -0.013638     -0.008512     -0.145723
     18.01751      1.41658      7.80765        -0.103971     -0.256238     -0.167355
     11.46999      6.79247      4.57386         0.311554     -0.065865      0.137633
     17.88825      3.21217      4.57386        -0.311554     -0.065865      0.137633
      1.92925      6.74471      9.69488        -0.090106      0.011216      0.020826
      4.88971      7.13919      6.48754        -0.012337      0.004790     -0.203298
     18.00911      4.99639      7.82598        -0.113642      0.256594     -0.124077
      1.97687      1.76145      5.48648         0.300859     -0.033991     -0.319732
     11.34913      1.41609      7.82598         0.113642      0.256594     -0.124077
     14.67579      4.99009      3.79617        -0.012337     -0.004790      0.203298
      8.23143      3.55210      2.47606        -0.103971      0.256238      0.167355
     17.59529      6.78753      4.79723        -0.300859      0.033991      0.319732
     11.76295      3.20723      4.79723         0.300859      0.033991      0.319732
      4.89637      3.55889      6.48754         0.012337      0.004790     -0.203298
      7.80921      5.34175      5.48648        -0.300859     -0.033991     -0.319732
      1.56305      3.55259      2.45774         0.113642     -0.256594      0.124077
    total drift:                               -0.009018     -0.453266     -1.106932

  FREE ENERGIE OF THE ION-ELECTRON SYSTEM (eV)
  free  energy   TOTEN  =      -282.38419911 eV

  energy  without entropy=     -282.38419911  energy(sigma->0) =     -282.38419911