 vasp.5.4.4.18Apr17-6-g9f103f2a35 (build Aug 03 2021 19:59:50) complex

 executed on             LinuxIFC date 2021.08.29  06:37:41

 INCAR:
 POTCAR:    PAW_PBE Cs_sv 08Apr2002
 POTCAR:    PAW_PBE Nb_pv 08Apr2002
 POTCAR:    PAW_PBE S 06Sep2000
 POTCAR:    PAW_PBE Br 06Sep2000
 POTCAR:    PAW_PBE Cs_sv 08Apr2002
   VRHFIN =Cs: 5s5p6s

   TITEL  = PAW_PBE Cs_sv 08Apr2002
   POMASS =  132.900; ZVAL   =    9.000    mass and valenz
   ENMAX  =  220.318; ENMIN  =  165.238 eV

 POTCAR:    PAW_PBE Nb_pv 08Apr2002
   VRHFIN =Nb: 4p5s4d

   TITEL  = PAW_PBE Nb_pv 08Apr2002
   POMASS =   92.000; ZVAL   =   11.000    mass and valenz
   ENMAX  =  208.608; ENMIN  =  156.456 eV

 POTCAR:    PAW_PBE S 06Sep2000
   VRHFIN =S : s2p4

   TITEL  = PAW_PBE S 06Sep2000
   POMASS =   32.066; ZVAL   =    6.000    mass and valenz
   ENMAX  =  258.689; ENMIN  =  194.016 eV

 POTCAR:    PAW_PBE Br 06Sep2000
   VRHFIN =Br: s2p5

   TITEL  = PAW_PBE Br 06Sep2000
   POMASS =   79.904; ZVAL   =    7.000    mass and valenz
   ENMAX  =  216.285; ENMIN  =  162.214 eV

 Optimization of the real space projectors (new method)

 maximal supplied QI-value         = 15.12
 optimisation between [QCUT,QGAM] = [ 11.34, 22.83] = [ 36.00,145.93] Ry
 Optimized for a Real-space Cutoff    1.56 Angstroem

   l    n(q)    QCUT    max X(q) W(low)/X(q) W(high)/X(q)  e(spline)
   0     11    11.338    25.322    0.46E-04    0.79E-04    0.58E-06
   0     11    11.338    99.187    0.44E-04    0.77E-04    0.56E-06
   1     10    11.338    11.761    0.13E-03    0.11E-03    0.42E-06
   1     10    11.338     8.275    0.14E-03    0.11E-03    0.46E-06
   2     10    11.338     3.829    0.13E-03    0.23E-03    0.18E-06
 Optimization of the real space projectors (new method)

[...]

   l    n(q)    QCUT    max X(q) W(low)/X(q) W(high)/X(q)  e(spline)
   0      8    11.310   187.594    0.16E-03    0.19E-03    0.53E-07
   0      8    11.310   164.243    0.16E-03    0.19E-03    0.53E-07
   1      8    11.310    67.533    0.18E-03    0.19E-03    0.92E-07
   1      8    11.310    50.729    0.18E-03    0.19E-03    0.90E-07
 Optimization of the real space projectors (new method)

 maximal supplied QI-value         = 17.95
 optimisation between [QCUT,QGAM] = [ 11.31, 22.80] = [ 35.82,145.56] Ry
 Optimized for a Real-space Cutoff    1.31 Angstroem

   l    n(q)    QCUT    max X(q) W(low)/X(q) W(high)/X(q)  e(spline)
   0      9    11.310   175.082    0.48E-04    0.59E-04    0.71E-07
   0      9    11.310   174.004    0.47E-04    0.57E-04    0.69E-07
   1      8    11.310    54.315    0.11E-03    0.13E-03    0.93E-07
   1      8    11.310    42.441    0.10E-03    0.13E-03    0.91E-07
   2      8    11.310     3.596    0.18E-04    0.69E-04    0.67E-07
  PAW_PBE Cs_sv 08Apr2002               :
  PAW_PBE Nb_pv 08Apr2002               :
  PAW_PBE S 06Sep2000                   :
  PAW_PBE Br 06Sep2000                  :

 POSCAR: Cs4 Nb12 S4 Br28
  positions in direct lattice
 exchange correlation table for  LEXCH =        8
   RHO(1)=    0.500       N(1)  =     2000
   RHO(2)=  100.500       N(2)  =     4000

 ion  position               nearest neighbor table
   1  0.405  0.769  0.885-
   2  0.095  0.269  0.885-
   3  0.905  0.731  0.115-
   4  0.595  0.231  0.115-
   5  0.828  0.135  0.579-  19 2.47  36 2.61  34 2.62  28 2.66  17 2.68  44 2.80  15 2.88  14 2.91
                             6 3.12
   6  0.672  0.037  0.579-  17 2.48  35 2.61  41 2.62  28 2.67  19 2.67  45 2.80   8 2.88  10 2.92
                             5 3.12
   7  0.172  0.463  0.421-  18 2.48  31 2.61  48 2.62  46 2.67  20 2.67  40 2.80  13 2.88  12 2.92
                            11 3.12
   8  0.672  0.635  0.579-  17 2.47  35 2.61  32 2.62  42 2.66  19 2.68  45 2.80   6 2.88  10 2.91
                            15 3.12
   9  0.330  0.213  0.175-  20 2.39  26 2.60  43 2.60  33 2.73  29 2.74  30 2.76  11 2.91  16 2.92

  10  0.670  0.787  0.825-  17 2.39  41 2.60  32 2.60  21 2.73  23 2.74  25 2.76   8 2.91   6 2.92

  11  0.328  0.365  0.421-  20 2.47  22 2.61  43 2.62  46 2.66  18 2.68  47 2.80  16 2.88   9 2.91
                             7 3.12
  12  0.170  0.713  0.175-  18 2.39  48 2.60  24 2.60  29 2.73  33 2.74  37 2.76  13 2.91   7 2.92

  13  0.172  0.865  0.421-  18 2.47  31 2.61  24 2.62  38 2.66  20 2.68  40 2.80   7 2.88  12 2.91
                            16 3.12
  14  0.830  0.287  0.825-  19 2.39  39 2.60  34 2.60  23 2.73  21 2.74  27 2.76   5 2.91  15 2.92

  15  0.828  0.537  0.579-  19 2.48  36 2.61  39 2.62  42 2.67  17 2.67  44 2.80   5 2.88  14 2.92
                             8 3.12
  16  0.328  0.963  0.421-  20 2.48  22 2.61  26 2.62  38 2.67  18 2.67  47 2.80  11 2.88   9 2.92
                            13 3.12
  17  0.762  0.817  0.673-  10 2.39   8 2.47   6 2.48  15 2.67   5 2.68
  18  0.262  0.683  0.327-  12 2.39  13 2.47   7 2.48  16 2.67  11 2.68
  19  0.738  0.317  0.673-  14 2.39   5 2.47  15 2.48   6 2.67   8 2.68
  20  0.238  0.183  0.327-   9 2.39  11 2.47  16 2.48   7 2.67  13 2.68
  21  0.750  0.011  0.956-  10 2.73  14 2.74
  22  0.414  0.138  0.555-  11 2.61  16 2.61
  23  0.750  0.511  0.956-  14 2.73  10 2.74
  24  0.079  0.949  0.241-  12 2.60  13 2.62
  25  0.599  0.741  0.057-  10 2.76
  26  0.420  0.950  0.239-   9 2.60  16 2.62
  27  0.901  0.241  0.057-  14 2.76
  28  0.750  0.125  0.369-   5 2.66   6 2.67
  29  0.250  0.489  0.044-  12 2.73   9 2.74
  30  0.401  0.259  0.943-   9 2.76
  31  0.086  0.638  0.555-  13 2.61   7 2.61
  32  0.579  0.551  0.759-  10 2.60   8 2.62
  33  0.250  0.989  0.044-   9 2.73  12 2.74
  34  0.921  0.051  0.759-  14 2.60   5 2.62
  35  0.586  0.862  0.445-   8 2.61   6 2.61
  36  0.914  0.362  0.445-   5 2.61  15 2.61
  37  0.099  0.759  0.943-  12 2.76
  38  0.250  0.875  0.631-  13 2.66  16 2.67
  39  0.920  0.550  0.761-  14 2.60  15 2.62
  40  0.101  0.143  0.534-   7 2.80  13 2.80
  41  0.580  0.050  0.761-  10 2.60   6 2.62
  42  0.750  0.625  0.369-   8 2.66  15 2.67
  43  0.421  0.449  0.241-   9 2.60  11 2.62
  44  0.899  0.857  0.466-  15 2.80   5 2.80
  45  0.601  0.357  0.466-   6 2.80   8 2.80
  46  0.250  0.375  0.631-  11 2.66   7 2.67
  47  0.399  0.643  0.534-  16 2.80  11 2.80
  48  0.080  0.450  0.239-  12 2.60   7 2.62

  LATTYP: Found a simple monoclinic cell.
 ALAT       =    13.3731005516
 B/A-ratio  =     1.4635471073
 C/A-ratio  =     1.4040276409
 COS(beta)  =    -0.9560312962

  Lattice vectors:

 A1 = (   0.0000000000,  -8.5489802464, -10.2837130993)
 A2 = ( -19.5721626282,   0.0000000000,   0.0000000000)
 A3 = (   0.0000000000,  15.7095842465,  10.2837130993)

Analysis of symmetry for initial positions (statically):
 Subroutine PRICEL returns:
 Original cell was already a primitive cell.

 Routine SETGRP: Setting up the symmetry group for a
 simple monoclinic supercell.

 Subroutine GETGRP returns: Found  4 space group operations
 (whereof  2 operations were pure point group operations)
 out of a pool of  4 trial point group operations.

The static configuration has the point symmetry S_2 .
 The point group associated with its full space group is C_2h.

Analysis of symmetry for dynamics (positions and initial velocities):
 Subroutine PRICEL returns:
 Original cell was already a primitive cell.

 Routine SETGRP: Setting up the symmetry group for a
 simple monoclinic supercell.

 Subroutine GETGRP returns: Found  4 space group operations
 (whereof  2 operations were pure point group operations)
 out of a pool of  4 trial point group operations.

The dynamic configuration has the point symmetry S_2 .
 The point group associated with its full space group is C_2h.

 Subroutine INISYM returns: Found  4 space group operations
 (whereof  2 operations are pure point group operations),
 and found     1 'primitive' translations

 KPOINTS: Monoclinic
  interpolating k-points between supplied coordinates
  k-points in reciprocal lattice
Space group operators:
 irot       det(A)        alpha          n_x          n_y          n_z        tau_x        tau_y        tau_z
    1     1.000000     0.000000     1.000000     0.000000     0.000000     0.000000     0.000000     0.000000
    2    -1.000000     0.000000     1.000000     0.000000     0.000000     0.000000     0.000000     0.000000
    3     1.000000   180.000000     1.000000     0.000000     0.000000    -0.500000     0.500000    -0.000000
    4    -1.000000   180.000000     1.000000     0.000000     0.000000    -0.500000     0.500000     0.000000

 SYSTEM =  Ga2BiAs
 POSCAR =  Cs4 Nb12 S4 Br28

 Startparameter for this run:
   NWRITE =      2    write-flag & timer
   PREC   = accura    normal or accurate (medium, high low for compatibility)
   ISTART =      1    job   : 0-new  1-cont  2-samecut
   ICHARG =      2    charge: 1-file 2-atom 10-const
   ISPIN  =      1    spin polarized calculation?
   LNONCOLLINEAR =      F non collinear calculations
   LSORBIT =      F    spin-orbit coupling
   INIWAV =      1    electr: 0-lowe 1-rand  2-diag
   LASPH  =      F    aspherical Exc in radial PAW
   METAGGA=      F    non-selfconsistent MetaGGA calc.

 Electronic Relaxation 1
   ENCUT  =  500.0 eV  36.75 Ry    6.06 a.u.  35.68 13.06 18.92*2*pi/ulx,y,z
   ENINI  =  500.0     initial cutoff
   ENAUG  =  503.9 eV  augmentation charge cutoff
   NELM   =     60;   NELMIN=  2; NELMDL=  0     # of ELM steps
   EDIFF  = 0.1E-04   stopping-criterion for ELM
   LREAL  =      T    real-space projection
   NLSPLINE    = F    spline interpolate recip. space projectors
   LCOMPAT=      F    compatible to vasp.4.4
   GGA_COMPAT  = T    GGA compatible to vasp.4.4-vasp.4.6
   LMAXPAW     = -100 max onsite density
   LMAXMIX     =    2 max onsite mixed and CHGCAR
   VOSKOWN=      0    Vosko Wilk Nusair interpolation
   ROPT   =   -0.00025  -0.00025  -0.00025  -0.00025
 Ionic relaxation
   EDIFFG = -.1E-01   stopping-criterion for IOM
   NSW    =      0    number of steps for IOM
   NBLOCK =      1;   KBLOCK =      1    inner block; outer block
   IBRION =     -1    ionic relax: 0-MD 1-quasi-New 2-CG
   NFREE  =      0    steps in history (QN), initial steepest desc. (CG)
   ISIF   =      2    stress and relaxation
   IWAVPR =     10    prediction:  0-non 1-charg 2-wave 3-comb
   ISYM   =      2    0-nonsym 1-usesym 2-fastsym
   LCORR  =      T    Harris-Foulkes like correction to forces

   POTIM  = 0.5000    time-step for ionic-motion
   TEIN   =    0.0    initial temperature
   TEBEG  =    0.0;   TEEND  =   0.0 temperature during run
   SMASS  =  -3.00    Nose mass-parameter (am)
   estimated Nose-frequenzy (Omega)   =  0.10E-29 period in steps =****** mass=  -0.875E-26a.u.
   SCALEE = 1.0000    scale energy and forces
   NPACO  =    256;   APACO  = 16.0  distance and # of slots for P.C.
   PSTRESS=    0.0 pullay stress

  Mass of Ions in am
   POMASS = 132.90 92.00 32.07 79.90
  Ionic Valenz
   ZVAL   =   9.00 11.00  6.00  7.00
  Atomic Wigner-Seitz radii
  virtual crystal weights
   VCA    =   1.00  1.00  1.00  1.00
   NELECT =     388.0000    total number of electrons
   NUPDOWN=      -1.0000    fix difference up-down

 DOS related values:
   EMIN   =  10.00;   EMAX   =-10.00  energy-range for DOS
   EFERMI =   0.00
[...]

 total charge

# of ion       s       p       d       tot
    1        1.836   4.710   0.019   6.565
    2        1.836   4.710   0.019   6.565
    3        1.836   4.710   0.019   6.565
    4        1.836   4.710   0.019   6.565
    5        0.293   6.298   2.992   9.582
    6        0.294   6.299   2.989   9.582
    7        0.294   6.299   2.989   9.582
    8        0.293   6.298   2.992   9.582
    9        0.297   6.303   2.964   9.564
   10        0.297   6.303   2.964   9.564
   11        0.293   6.298   2.992   9.582
   12        0.297   6.303   2.964   9.564
   13        0.293   6.298   2.992   9.582
   14        0.297   6.303   2.964   9.564
   15        0.294   6.299   2.989   9.582
   16        0.294   6.299   2.989   9.582
   17        1.327   2.398   0.000   3.725
   18        1.327   2.398   0.000   3.725
   19        1.327   2.398   0.000   3.725
   20        1.327   2.398   0.000   3.725
   21        1.610   3.254   0.020   4.884
   22        1.615   3.238   0.029   4.883
   23        1.610   3.254   0.020   4.884
   24        1.615   3.244   0.031   4.890
   25        1.606   3.266   0.009   4.881
   26        1.615   3.244   0.031   4.890
   27        1.606   3.266   0.009   4.881
   28        1.614   3.246   0.025   4.885
   29        1.610   3.254   0.020   4.884
   30        1.606   3.266   0.009   4.881
   31        1.615   3.238   0.029   4.883
   32        1.615   3.244   0.031   4.890
   33        1.610   3.254   0.020   4.884
   34        1.615   3.244   0.031   4.890
   35        1.615   3.238   0.029   4.883
   36        1.615   3.238   0.029   4.883
   37        1.606   3.266   0.009   4.881
   38        1.614   3.246   0.025   4.885
   39        1.615   3.244   0.031   4.890
   40        1.610   3.252   0.016   4.877
   41        1.615   3.244   0.031   4.890
   42        1.614   3.246   0.025   4.885
   43        1.615   3.244   0.031   4.890
   44        1.610   3.252   0.016   4.877
   45        1.610   3.252   0.016   4.877
   46        1.614   3.246   0.025   4.885
   47        1.610   3.252   0.016   4.877
   48        1.615   3.244   0.031   4.890
tot         61.326 195.007  36.501 292.833

  FORCE on cell =-STRESS in cart. coord.  units (eV):
  Direction    XX          YY          ZZ          XY          YZ          ZX
  Alpha Z  1398.37696  1398.37696  1398.37696
  Ewald   -6310.08690 -1070.03530 -7965.73926    -0.00003   -30.11074     0.00018
  Hartree  2261.20737  6912.56672   849.23293    -0.00005   -20.58739    -0.00002
  E(xc)   -1527.55295 -1526.67398 -1528.02272    -0.00000     0.01943    -0.00000
  Local   -2043.86974-11967.87380   995.00941     0.00010    49.94485    -0.00012
  n-local  1243.73538  1239.07877  1240.45070    -0.00000     0.06790    -0.00000
  augment    32.74789    31.83712    34.74550    -0.00000    -0.06555    -0.00001
  Kinetic  4946.10428  4983.43517  4977.22274    -0.00001     0.77849     0.00005
  Fock        0.00000     0.00000     0.00000     0.00000     0.00000     0.00000
  Total       0.66228     0.71166     1.27626     0.00000     0.04698     0.00000
  in kB       0.73623     0.79113     1.41877     0.00000     0.05222     0.00000

 VOLUME and BASIS-vectors are now :
  energy-cutoff  :      500.00
  volume of cell :     1441.25
      direct lattice vectors                 reciprocal lattice vectors
    19.572162628  0.000000000  0.000000000     0.051092974  0.000000000  0.000000000
     0.000000000  7.160604000  0.000000000     0.000000000  0.139653024 -0.018854176
     0.000000000  1.388376246 10.283713099     0.000000000  0.000000000  0.097241141

  length of vectors
    19.572162628  7.160604000 10.377010345     0.051092974  0.140920002  0.097241141

 FORCES acting on ions
    electron-ion (+dipol)            ewald-force                    non-local-force                 convergence-correction
   -.499E+02 0.419E+01 0.152E+02   0.497E+02 -.429E+01 -.152E+02   0.145E+00 0.913E-01 -.634E-01   0.177E-02 0.359E-03 0.226E-02
   0.499E+02 0.419E+01 0.152E+02   -.497E+02 -.429E+01 -.152E+02   -.145E+00 0.913E-01 -.634E-01   -.177E-02 0.359E-03 0.227E-02
   -.499E+02 -.419E+01 -.152E+02   0.497E+02 0.429E+01 0.152E+02   0.145E+00 -.913E-01 0.634E-01   0.175E-02 -.358E-03 -.226E-02
   0.499E+02 -.419E+01 -.152E+02   -.497E+02 0.429E+01 0.152E+02   -.145E+00 -.913E-01 0.634E-01   -.175E-02 -.358E-03 -.226E-02
   -.273E+03 0.129E+03 0.197E+03   0.273E+03 -.128E+03 -.197E+03   0.124E+00 -.695E+00 -.510E-01   0.279E-02 -.129E-02 0.507E-03
   0.268E+03 -.127E+03 0.190E+03   -.268E+03 0.126E+03 -.190E+03   -.921E-01 0.663E+00 0.579E-01   -.353E-02 0.238E-02 -.176E-03
   0.268E+03 0.127E+03 -.190E+03   -.268E+03 -.126E+03 0.190E+03   -.921E-01 -.663E+00 -.579E-01   -.353E-02 -.238E-02 0.172E-03
   0.273E+03 0.129E+03 0.197E+03   -.273E+03 -.128E+03 -.197E+03   -.124E+00 -.695E+00 -.510E-01   -.280E-02 -.129E-02 0.508E-03
   -.187E+03 -.191E+01 0.412E+03   0.187E+03 0.192E+01 -.411E+03   -.779E-01 -.919E-03 -.321E+00   0.229E-02 0.233E-03 -.922E-02
   0.187E+03 0.191E+01 -.412E+03   -.187E+03 -.192E+01 0.411E+03   0.779E-01 0.919E-03 0.321E+00   -.228E-02 -.235E-03 0.922E-02
   -.273E+03 -.129E+03 -.197E+03   0.273E+03 0.128E+03 0.197E+03   0.124E+00 0.695E+00 0.510E-01   0.280E-02 0.129E-02 -.508E-03
   0.187E+03 -.191E+01 0.412E+03   -.187E+03 0.192E+01 -.411E+03   0.779E-01 -.919E-03 -.321E+00   -.229E-02 0.234E-03 -.922E-02
   0.273E+03 -.129E+03 -.197E+03   -.273E+03 0.128E+03 0.197E+03   -.124E+00 0.695E+00 0.510E-01   -.280E-02 0.129E-02 -.511E-03
   -.187E+03 0.191E+01 -.412E+03   0.187E+03 -.192E+01 0.411E+03   -.779E-01 0.919E-03 0.321E+00   0.227E-02 -.234E-03 0.922E-02
   -.268E+03 -.127E+03 0.190E+03   0.268E+03 0.126E+03 -.190E+03   0.921E-01 0.663E+00 0.579E-01   0.351E-02 0.237E-02 -.176E-03
   -.268E+03 0.127E+03 -.190E+03   0.268E+03 -.126E+03 0.190E+03   0.921E-01 -.663E+00 -.579E-01   0.353E-02 -.237E-02 0.174E-03
   -.168E+03 -.575E+00 -.775E+02   0.168E+03 0.545E+00 0.802E+02   -.224E+00 0.292E-01 -.265E+01   0.899E-03 -.178E-03 0.247E-02
   -.168E+03 0.575E+00 0.775E+02   0.168E+03 -.545E+00 -.802E+02   -.224E+00 -.292E-01 0.265E+01   0.903E-03 0.178E-03 -.247E-02
   0.168E+03 -.575E+00 -.775E+02   -.168E+03 0.545E+00 0.802E+02   0.224E+00 0.292E-01 -.265E+01   -.906E-03 -.177E-03 0.247E-02
   0.168E+03 0.575E+00 0.775E+02   -.168E+03 -.545E+00 -.802E+02   0.224E+00 -.292E-01 0.265E+01   -.904E-03 0.177E-03 -.247E-02
   -.958E+00 0.126E+00 -.291E+03   0.972E+00 -.133E+00 0.293E+03   -.881E-02 0.135E-01 -.183E+01   -.126E-04 0.170E-04 0.314E-02
   -.229E+03 -.120E+02 -.227E+03   0.231E+03 0.121E+02 0.228E+03   -.150E+01 -.720E-01 -.929E+00   0.275E-02 -.809E-03 0.332E-02
   0.958E+00 0.126E+00 -.291E+03   -.972E+00 -.133E+00 0.293E+03   0.881E-02 0.135E-01 -.183E+01   0.624E-05 0.159E-04 0.314E-02
   0.315E+03 -.110E+03 0.128E+03   -.316E+03 0.111E+03 -.128E+03   0.137E+01 -.810E+00 0.349E+00   -.343E-02 0.965E-03 -.443E-02
   0.111E+03 0.233E+01 -.156E+03   -.111E+03 -.234E+01 0.157E+03   0.485E+00 0.176E-01 -.134E+01   -.224E-02 0.150E-03 0.400E-03
   -.309E+03 0.110E+03 0.134E+03   0.310E+03 -.111E+03 -.134E+03   -.135E+01 0.812E+00 0.376E+00   0.324E-02 -.952E-03 -.386E-02
   -.111E+03 0.233E+01 -.156E+03   0.111E+03 -.234E+01 0.157E+03   -.485E+00 0.176E-01 -.134E+01   0.224E-02 0.150E-03 0.402E-03
   -.654E+01 0.750E+00 0.375E+03   0.669E+01 -.840E+00 -.377E+03   -.152E+00 0.832E-01 0.187E+01   -.827E-03 -.235E-04 -.432E-02
   -.958E+00 -.126E+00 0.291E+03   0.972E+00 0.133E+00 -.293E+03   -.881E-02 -.135E-01 0.183E+01   -.102E-04 -.167E-04 -.313E-02
   -.111E+03 -.233E+01 0.156E+03   0.111E+03 0.234E+01 -.157E+03   -.485E+00 -.176E-01 0.134E+01   0.226E-02 -.151E-03 -.402E-03
   0.229E+03 -.120E+02 -.227E+03   -.231E+03 0.121E+02 0.228E+03   0.150E+01 -.720E-01 -.929E+00   -.274E-02 -.810E-03 0.332E-02
   0.315E+03 0.110E+03 -.128E+03   -.316E+03 -.111E+03 0.128E+03   0.137E+01 0.810E+00 -.349E+00   -.342E-02 -.964E-03 0.443E-02
   0.958E+00 -.126E+00 0.291E+03   -.972E+00 0.133E+00 -.293E+03   0.881E-02 -.135E-01 0.183E+01   0.991E-05 -.161E-04 -.313E-02
   -.315E+03 0.110E+03 -.128E+03   0.316E+03 -.111E+03 0.128E+03   -.137E+01 0.810E+00 -.349E+00   0.341E-02 -.963E-03 0.443E-02
   0.229E+03 0.120E+02 0.227E+03   -.231E+03 -.121E+02 -.228E+03   0.150E+01 0.720E-01 0.929E+00   -.273E-02 0.810E-03 -.332E-02
   -.229E+03 0.120E+02 0.227E+03   0.231E+03 -.121E+02 -.228E+03   -.150E+01 0.720E-01 0.929E+00   0.273E-02 0.808E-03 -.332E-02
   0.111E+03 -.233E+01 0.156E+03   -.111E+03 0.234E+01 -.157E+03   0.485E+00 -.176E-01 0.134E+01   -.225E-02 -.151E-03 -.399E-03
   0.654E+01 -.750E+00 -.375E+03   -.669E+01 0.839E+00 0.377E+03   0.152E+00 -.832E-01 -.187E+01   0.824E-03 0.241E-04 0.432E-02
   -.309E+03 -.110E+03 -.134E+03   0.310E+03 0.111E+03 0.134E+03   -.135E+01 -.812E+00 -.376E+00   0.322E-02 0.953E-03 0.386E-02
   0.211E+03 0.111E+02 -.181E+03   -.212E+03 -.111E+02 0.182E+03   0.155E+01 0.458E-01 -.109E+01   -.221E-02 0.717E-03 0.185E-02
   0.309E+03 -.110E+03 -.134E+03   -.310E+03 0.111E+03 0.134E+03   0.135E+01 -.812E+00 -.376E+00   -.323E-02 0.954E-03 0.386E-02
   0.654E+01 0.750E+00 0.375E+03   -.669E+01 -.840E+00 -.377E+03   0.152E+00 0.832E-01 0.187E+01   0.820E-03 -.235E-04 -.432E-02
   -.315E+03 -.110E+03 0.128E+03   0.316E+03 0.111E+03 -.128E+03   -.137E+01 -.810E+00 0.349E+00   0.343E-02 0.963E-03 -.443E-02
   -.211E+03 -.111E+02 0.181E+03   0.212E+03 0.111E+02 -.182E+03   -.155E+01 -.458E-01 0.109E+01   0.220E-02 -.716E-03 -.185E-02
   0.211E+03 -.111E+02 0.181E+03   -.212E+03 0.111E+02 -.182E+03   0.155E+01 -.458E-01 0.109E+01   -.220E-02 -.718E-03 -.185E-02
   -.654E+01 -.750E+00 -.375E+03   0.669E+01 0.840E+00 0.377E+03   -.152E+00 -.832E-01 -.187E+01   -.823E-03 0.229E-04 0.432E-02
   -.211E+03 0.111E+02 -.181E+03   0.212E+03 -.111E+02 0.182E+03   -.155E+01 0.458E-01 -.109E+01   0.222E-02 0.716E-03 0.185E-02
   0.309E+03 0.110E+03 0.134E+03   -.310E+03 -.111E+03 -.134E+03   0.135E+01 0.812E+00 0.376E+00   -.324E-02 -.954E-03 -.386E-02
   0.155E-02 0.530E-03 -.204E-02   -.853E-12 -.171E-12 0.483E-12   0.666E-15 0.000E+00 0.111E-14   -.321E-04 -.179E-05 0.320E-05

 POSITION                                       TOTAL-FORCE (eV/Angst)
      7.93068      6.73267      9.09697         0.000537     -0.012462     -0.030752
      1.85540      3.15237      9.09697        -0.000537     -0.012462     -0.030752
     17.71676      5.39661      1.18674         0.000537      0.012462      0.030752
     11.64148      1.81631      1.18674        -0.000537      0.012462      0.030752
     16.19958      1.76817      5.95167         0.020731     -0.009385      0.008785
     13.15797      1.07211      5.95660        -0.005658      0.009871      0.016141
      3.37189      3.89657      4.32711        -0.005658     -0.009871     -0.016141
     13.15866      5.34847      5.95167        -0.020731     -0.009385      0.008785
      6.46128      1.76834      1.79542         0.011351      0.011163      0.041963
     13.11088      6.78064      8.48829        -0.011351     -0.011163     -0.041963
      6.41350      3.20051      4.33205         0.020731      0.009385     -0.008785
      3.32480      5.34864      1.79542        -0.011351      0.011163      0.041963
      3.37258      6.78081      4.33205        -0.020731      0.009385     -0.008785
     16.24736      3.20034      8.48829         0.011351     -0.011163     -0.041963
     16.20027      4.65241      5.95660         0.005658      0.009871      0.016141
      6.41419      7.47687      4.32711         0.005658     -0.009871     -0.016141
     14.92015      6.78842      6.92361         0.019369     -0.001165     -0.010645
      5.13407      5.34086      3.36010         0.019369      0.001165      0.010645
     14.43809      3.20812      6.92361        -0.019369     -0.001165     -0.010645
      4.65201      1.76056      3.36010        -0.019369      0.001165      0.010645
     14.68075      1.40615      9.83560         0.004744      0.005837     -0.013909
      8.10217      1.75651      5.70986        -0.003891      0.002842     -0.016675
     14.67750      4.98645      9.83560        -0.004744      0.005837     -0.013909
      1.55466      7.13240      2.47606         0.021850     -0.001497      0.007810
     11.71533      5.38457      0.58884         0.012007      0.011258     -0.029105
      8.22303      7.13289      2.45774        -0.018190     -0.001039      0.014867
     17.64292      1.80427      0.58884        -0.012007      0.011258     -0.029105
     14.68245      1.40979      3.79617        -0.002185     -0.006642      0.016141
      4.89467      3.56253      0.44811         0.004744     -0.005837      0.013909
      7.85683      3.16441      9.69488        -0.012007     -0.011258      0.029105
      1.68391      5.33681      5.70986         0.003891      0.002842     -0.016675
     11.34074      4.99688      7.80765         0.021850      0.001497     -0.007810
      4.89142      7.14283      0.44811        -0.004744     -0.005837      0.013909
     18.01751      1.41658      7.80765        -0.021850      0.001497     -0.007810
     11.46999      6.79247      4.57386         0.003891     -0.002842      0.016675
     17.88825      3.21217      4.57386        -0.003891     -0.002842      0.016675
      1.92925      6.74471      9.69488         0.012007     -0.011258      0.029105
      4.88971      7.13919      6.48754         0.002185      0.006642     -0.016141
     18.00911      4.99639      7.82598        -0.018190      0.001039     -0.014867
      1.97687      1.76145      5.48648         0.005265      0.014211     -0.019817
     11.34913      1.41609      7.82598         0.018190      0.001039     -0.014867
     14.67579      4.99009      3.79617         0.002185     -0.006642      0.016141
      8.23143      3.55210      2.47606        -0.021850     -0.001497      0.007810
     17.59529      6.78753      4.79723        -0.005265     -0.014211      0.019817
     11.76295      3.20723      4.79723         0.005265     -0.014211      0.019817
      4.89637      3.55889      6.48754        -0.002185      0.006642     -0.016141
      7.80921      5.34175      5.48648        -0.005265      0.014211     -0.019817
      1.56305      3.55259      2.45774         0.018190     -0.001039      0.014867
    total drift:                                0.001517      0.000528     -0.002038

  FREE ENERGIE OF THE ION-ELECTRON SYSTEM (eV)
  free  energy   TOTEN  =      -241.81694488 eV

  energy  without entropy=     -241.80159507  energy(sigma->0) =     -241.80926997

 total charge

# of ion       s       p       d       tot
    1        1.836   4.710   0.019   6.565
    2        1.836   4.710   0.019   6.565
    3        1.836   4.710   0.019   6.565
    4        1.836   4.710   0.019   6.565
    5        0.293   6.298   2.992   9.582
    6        0.294   6.299   2.989   9.582
    7        0.294   6.299   2.989   9.582
    8        0.293   6.298   2.992   9.582
    9        0.297   6.303   2.964   9.564
   10        0.297   6.303   2.964   9.564
   11        0.293   6.298   2.992   9.582
   12        0.297   6.303   2.964   9.564
   13        0.293   6.298   2.992   9.582
   14        0.297   6.303   2.964   9.564
   15        0.294   6.299   2.989   9.582
   16        0.294   6.299   2.989   9.582
   17        1.327   2.398   0.000   3.725
   18        1.327   2.398   0.000   3.725
   19        1.327   2.398   0.000   3.725
   20        1.327   2.398   0.000   3.725
   21        1.610   3.254   0.020   4.884
   22        1.615   3.238   0.029   4.883
   23        1.610   3.254   0.020   4.884
   24        1.615   3.244   0.031   4.890
   25        1.606   3.266   0.009   4.881
   26        1.615   3.244   0.031   4.890
   27        1.606   3.266   0.009   4.881
   28        1.614   3.246   0.025   4.885
   29        1.610   3.254   0.020   4.884
   30        1.606   3.266   0.009   4.881
   31        1.615   3.238   0.029   4.883
   32        1.615   3.244   0.031   4.890
   33        1.610   3.254   0.020   4.884
   34        1.615   3.244   0.031   4.890
   35        1.615   3.238   0.029   4.883
   36        1.615   3.238   0.029   4.883
   37        1.606   3.266   0.009   4.881
   38        1.614   3.246   0.025   4.885
   39        1.615   3.244   0.031   4.890
   40        1.610   3.252   0.016   4.877
   41        1.615   3.244   0.031   4.890
   42        1.614   3.246   0.025   4.885
   43        1.615   3.244   0.031   4.890
   44        1.610   3.252   0.016   4.877
   45        1.610   3.252   0.016   4.877
   46        1.614   3.246   0.025   4.885
   47        1.610   3.252   0.016   4.877
   48        1.615   3.244   0.031   4.890
tot         61.326 195.007  36.501 292.833