 vasp.5.4.4.18Apr17-6-g9f103f2a35 (build Aug 03 2021 19:59:50) complex

 executed on             LinuxIFC date 2021.08.29  06:23:12

 INCAR:
 POTCAR:    PAW_PBE Cs_sv 08Apr2002
 POTCAR:    PAW_PBE Nb_pv 08Apr2002
 POTCAR:    PAW_PBE S 06Sep2000
 POTCAR:    PAW_PBE Br 06Sep2000
 POTCAR:    PAW_PBE Cs_sv 08Apr2002
   VRHFIN =Cs: 5s5p6s

   TITEL  = PAW_PBE Cs_sv 08Apr2002
   POMASS =  132.900; ZVAL   =    9.000    mass and valenz
   ENMAX  =  220.318; ENMIN  =  165.238 eV

 POTCAR:    PAW_PBE Nb_pv 08Apr2002
   VRHFIN =Nb: 4p5s4d

   TITEL  = PAW_PBE Nb_pv 08Apr2002
   POMASS =   92.000; ZVAL   =   11.000    mass and valenz
   ENMAX  =  208.608; ENMIN  =  156.456 eV

 POTCAR:    PAW_PBE S 06Sep2000
   VRHFIN =S : s2p4

   TITEL  = PAW_PBE S 06Sep2000
   POMASS =   32.066; ZVAL   =    6.000    mass and valenz
   ENMAX  =  258.689; ENMIN  =  194.016 eV

 POTCAR:    PAW_PBE Br 06Sep2000
   VRHFIN =Br: s2p5

   TITEL  = PAW_PBE Br 06Sep2000
   POMASS =   79.904; ZVAL   =    7.000    mass and valenz
   ENMAX  =  216.285; ENMIN  =  162.214 eV

 Optimization of the real space projectors (new method)

 maximal supplied QI-value         = 15.12
 optimisation between [QCUT,QGAM] = [ 11.34, 22.83] = [ 36.00,145.93] Ry
 Optimized for a Real-space Cutoff    1.56 Angstroem

   l    n(q)    QCUT    max X(q) W(low)/X(q) W(high)/X(q)  e(spline)
   0     11    11.338    25.322    0.46E-04    0.79E-04    0.58E-06
   0     11    11.338    99.187    0.44E-04    0.77E-04    0.56E-06
   1     10    11.338    11.761    0.13E-03    0.11E-03    0.42E-06
   1     10    11.338     8.275    0.14E-03    0.11E-03    0.46E-06
   2     10    11.338     3.829    0.13E-03    0.23E-03    0.18E-06
 Optimization of the real space projectors (new method)

[...]

   l    n(q)    QCUT    max X(q) W(low)/X(q) W(high)/X(q)  e(spline)
   0      8    11.310   187.594    0.16E-03    0.19E-03    0.53E-07
   0      8    11.310   164.243    0.16E-03    0.19E-03    0.53E-07
   1      8    11.310    67.533    0.18E-03    0.19E-03    0.92E-07
   1      8    11.310    50.729    0.18E-03    0.19E-03    0.90E-07
 Optimization of the real space projectors (new method)

 maximal supplied QI-value         = 17.95
 optimisation between [QCUT,QGAM] = [ 11.31, 22.80] = [ 35.82,145.56] Ry
 Optimized for a Real-space Cutoff    1.31 Angstroem

   l    n(q)    QCUT    max X(q) W(low)/X(q) W(high)/X(q)  e(spline)
   0      9    11.310   175.082    0.48E-04    0.59E-04    0.71E-07
   0      9    11.310   174.004    0.47E-04    0.57E-04    0.69E-07
   1      8    11.310    54.315    0.11E-03    0.13E-03    0.93E-07
   1      8    11.310    42.441    0.10E-03    0.13E-03    0.91E-07
   2      8    11.310     3.596    0.18E-04    0.69E-04    0.67E-07
  PAW_PBE Cs_sv 08Apr2002               :
  PAW_PBE Nb_pv 08Apr2002               :
  PAW_PBE S 06Sep2000                   :
  PAW_PBE Br 06Sep2000                  :

 POSCAR: Cs4 Nb12 S4 Br28
  positions in direct lattice
 exchange correlation table for  LEXCH =        8
   RHO(1)=    0.500       N(1)  =     2000
   RHO(2)=  100.500       N(2)  =     4000

 ion  position               nearest neighbor table
   1  0.405  0.769  0.885-
   2  0.095  0.269  0.885-
   3  0.905  0.731  0.115-
   4  0.595  0.231  0.115-
   5  0.828  0.135  0.579-  19 2.47  36 2.61  34 2.62  28 2.66  17 2.68  44 2.80  15 2.88  14 2.91
                             6 3.12
   6  0.672  0.037  0.579-  17 2.48  35 2.61  41 2.62  28 2.67  19 2.67  45 2.80   8 2.88  10 2.92
                             5 3.12
   7  0.172  0.463  0.421-  18 2.48  31 2.61  48 2.62  46 2.67  20 2.67  40 2.80  13 2.88  12 2.92
                            11 3.12
   8  0.672  0.635  0.579-  17 2.47  35 2.61  32 2.62  42 2.66  19 2.68  45 2.80   6 2.88  10 2.91
                            15 3.12
   9  0.330  0.213  0.175-  20 2.39  26 2.60  43 2.60  33 2.73  29 2.74  30 2.76  11 2.91  16 2.92

  10  0.670  0.787  0.825-  17 2.39  41 2.60  32 2.60  21 2.73  23 2.74  25 2.76   8 2.91   6 2.92

  11  0.328  0.365  0.421-  20 2.47  22 2.61  43 2.62  46 2.66  18 2.68  47 2.80  16 2.88   9 2.91
                             7 3.12
  12  0.170  0.713  0.175-  18 2.39  48 2.60  24 2.60  29 2.73  33 2.74  37 2.76  13 2.91   7 2.92

  13  0.172  0.865  0.421-  18 2.47  31 2.61  24 2.62  38 2.66  20 2.68  40 2.80   7 2.88  12 2.91
                            16 3.12
  14  0.830  0.287  0.825-  19 2.39  39 2.60  34 2.60  23 2.73  21 2.74  27 2.76   5 2.91  15 2.92

  15  0.828  0.537  0.579-  19 2.48  36 2.61  39 2.62  42 2.67  17 2.67  44 2.80   5 2.88  14 2.92
                             8 3.12
  16  0.328  0.963  0.421-  20 2.48  22 2.61  26 2.62  38 2.67  18 2.67  47 2.80  11 2.88   9 2.92
                            13 3.12
  17  0.762  0.817  0.673-  10 2.39   8 2.47   6 2.48  15 2.67   5 2.68
  18  0.262  0.683  0.327-  12 2.39  13 2.47   7 2.48  16 2.67  11 2.68
  19  0.738  0.317  0.673-  14 2.39   5 2.47  15 2.48   6 2.67   8 2.68
  20  0.238  0.183  0.327-   9 2.39  11 2.47  16 2.48   7 2.67  13 2.68
  21  0.750  0.011  0.956-  10 2.73  14 2.74
  22  0.414  0.138  0.555-  11 2.61  16 2.61
  23  0.750  0.511  0.956-  14 2.73  10 2.74
  24  0.079  0.949  0.241-  12 2.60  13 2.62
  25  0.599  0.741  0.057-  10 2.76
  26  0.420  0.950  0.239-   9 2.60  16 2.62
  27  0.901  0.241  0.057-  14 2.76
  28  0.750  0.125  0.369-   5 2.66   6 2.67
  29  0.250  0.489  0.044-  12 2.73   9 2.74
  30  0.401  0.259  0.943-   9 2.76
  31  0.086  0.638  0.555-  13 2.61   7 2.61
  32  0.579  0.551  0.759-  10 2.60   8 2.62
  33  0.250  0.989  0.044-   9 2.73  12 2.74
  34  0.921  0.051  0.759-  14 2.60   5 2.62
  35  0.586  0.862  0.445-   8 2.61   6 2.61
  36  0.914  0.362  0.445-   5 2.61  15 2.61
  37  0.099  0.759  0.943-  12 2.76
  38  0.250  0.875  0.631-  13 2.66  16 2.67
  39  0.920  0.550  0.761-  14 2.60  15 2.62
  40  0.101  0.143  0.534-   7 2.80  13 2.80
  41  0.580  0.050  0.761-  10 2.60   6 2.62
  42  0.750  0.625  0.369-   8 2.66  15 2.67
  43  0.421  0.449  0.241-   9 2.60  11 2.62
  44  0.899  0.857  0.466-  15 2.80   5 2.80
  45  0.601  0.357  0.466-   6 2.80   8 2.80
  46  0.250  0.375  0.631-  11 2.66   7 2.67
  47  0.399  0.643  0.534-  16 2.80  11 2.80
  48  0.080  0.450  0.239-  12 2.60   7 2.62

  LATTYP: Found a simple monoclinic cell.
 ALAT       =    13.3731005516
 B/A-ratio  =     1.4635471073
 C/A-ratio  =     1.4040276409
 COS(beta)  =    -0.9560312962

  Lattice vectors:

 A1 = (   0.0000000000,  -8.5489802464, -10.2837130993)
 A2 = ( -19.5721626282,   0.0000000000,   0.0000000000)
 A3 = (   0.0000000000,  15.7095842465,  10.2837130993)

Analysis of symmetry for initial positions (statically):
 Subroutine PRICEL returns:
 Original cell was already a primitive cell.

 Routine SETGRP: Setting up the symmetry group for a
 simple monoclinic supercell.

 Subroutine GETGRP returns: Found  4 space group operations
 (whereof  2 operations were pure point group operations)
 out of a pool of  4 trial point group operations.

The static configuration has the point symmetry S_2 .
 The point group associated with its full space group is C_2h.

Analysis of symmetry for dynamics (positions and initial velocities):
 Subroutine PRICEL returns:
 Original cell was already a primitive cell.

 Routine SETGRP: Setting up the symmetry group for a
 simple monoclinic supercell.

 Subroutine GETGRP returns: Found  4 space group operations
 (whereof  2 operations were pure point group operations)
 out of a pool of  4 trial point group operations.

The dynamic configuration has the point symmetry S_2 .
 The point group associated with its full space group is C_2h.

 Subroutine INISYM returns: Found  4 space group operations
 (whereof  2 operations are pure point group operations),
 and found     1 'primitive' translations

 KPOINTS: MP

Automatic generation of k-mesh.
Space group operators:
 irot       det(A)        alpha          n_x          n_y          n_z        tau_x        tau_y        tau_z
    1     1.000000     0.000000     1.000000     0.000000     0.000000     0.000000     0.000000     0.000000
    2    -1.000000     0.000000     1.000000     0.000000     0.000000     0.000000     0.000000     0.000000
    3     1.000000   180.000000     1.000000     0.000000     0.000000    -0.500000     0.500000    -0.000000
    4    -1.000000   180.000000     1.000000     0.000000     0.000000    -0.500000     0.500000     0.000000

 Subroutine IBZKPT returns following result:

 Found      1 irreducible k-points:

 Following reciprocal coordinates:
            Coordinates               Weight
  0.000000  0.000000  0.000000      1.000000

 Following cartesian coordinates:
            Coordinates               Weight
  0.000000  0.000000  0.000000      1.000000

 SYSTEM =  Ga2BiAs
 POSCAR =  Cs4 Nb12 S4 Br28

 Startparameter for this run:
   NWRITE =      2    write-flag & timer
   PREC   = accura    normal or accurate (medium, high low for compatibility)
   ISTART =      1    job   : 0-new  1-cont  2-samecut
   ICHARG =      2    charge: 1-file 2-atom 10-const
   ISPIN  =      1    spin polarized calculation?
   LNONCOLLINEAR =      F non collinear calculations
   LSORBIT =      F    spin-orbit coupling
   INIWAV =      1    electr: 0-lowe 1-rand  2-diag
   LASPH  =      F    aspherical Exc in radial PAW
   METAGGA=      F    non-selfconsistent MetaGGA calc.

 Electronic Relaxation 1
   ENCUT  =  500.0 eV  36.75 Ry    6.06 a.u.  35.68 13.06 18.92*2*pi/ulx,y,z
   ENINI  =  500.0     initial cutoff
   ENAUG  =  503.9 eV  augmentation charge cutoff
   NELM   =     60;   NELMIN=  2; NELMDL=  0     # of ELM steps
   EDIFF  = 0.1E-03   stopping-criterion for ELM
   LREAL  =      T    real-space projection
   NLSPLINE    = F    spline interpolate recip. space projectors
   LCOMPAT=      F    compatible to vasp.4.4
   GGA_COMPAT  = T    GGA compatible to vasp.4.4-vasp.4.6
   LMAXPAW     = -100 max onsite density
   LMAXMIX     =    2 max onsite mixed and CHGCAR
   VOSKOWN=      0    Vosko Wilk Nusair interpolation
   ROPT   =   -0.00025  -0.00025  -0.00025  -0.00025
 Ionic relaxation
   EDIFFG = -.2E-01   stopping-criterion for IOM
   NSW    =      0    number of steps for IOM
   NBLOCK =      1;   KBLOCK =      1    inner block; outer block
   IBRION =     -1    ionic relax: 0-MD 1-quasi-New 2-CG
   NFREE  =      0    steps in history (QN), initial steepest desc. (CG)
   ISIF   =      2    stress and relaxation
   IWAVPR =     10    prediction:  0-non 1-charg 2-wave 3-comb
   ISYM   =      2    0-nonsym 1-usesym 2-fastsym
   LCORR  =      T    Harris-Foulkes like correction to forces

   POTIM  = 0.5000    time-step for ionic-motion
   TEIN   =    0.0    initial temperature
   TEBEG  =    0.0;   TEEND  =   0.0 temperature during run
   SMASS  =  -3.00    Nose mass-parameter (am)
   estimated Nose-frequenzy (Omega)   =  0.10E-29 period in steps =****** mass=  -0.875E-26a.u.
   SCALEE = 1.0000    scale energy and forces
   NPACO  =    256;   APACO  = 16.0  distance and # of slots for P.C.
   PSTRESS=    0.0 pullay stress

  Mass of Ions in am
   POMASS = 132.90 92.00 32.07 79.90
  Ionic Valenz
   ZVAL   =   9.00 11.00  6.00  7.00
  Atomic Wigner-Seitz radii
  virtual crystal weights
[...]
  entropy T*S    EENTRO =         0.05203504
  eigenvalues    EBANDS =     -3478.47187472
  atomic energy  EATOM  =     26167.23066318
  Solvation  Ediel_sol  =         0.00000000
  free energy    TOTEN  =      -237.75633251 eV

  energy without entropy =     -237.80836755  energy(sigma->0) =     -237.77367753

 average (electrostatic) potential at core
  the test charge radii are     1.1312  1.2125  0.9698  1.0178
  (the norm of the test charge is              1.0000)
       1 -49.0507       2 -49.0507       3 -49.0507       4 -49.0507       5 -39.1442
       6 -39.1427       7 -39.1427       8 -39.1442       9 -39.0952      10 -39.0952
      11 -39.1442      12 -39.0952      13 -39.1442      14 -39.0952      15 -39.1427
      16 -39.1427      17 -90.2779      18 -90.2779      19 -90.2779      20 -90.2779
      21 -63.7249      22 -64.1999      23 -63.7249      24 -64.1907      25 -62.7084
      26 -64.2107      27 -62.7084      28 -63.8500      29 -63.7249      30 -62.7084
      31 -64.1998      32 -64.1907      33 -63.7249      34 -64.1907      35 -64.1999
      36 -64.1999      37 -62.7084      38 -63.8500      39 -64.2107      40 -63.3149
      41 -64.2108      42 -63.8500      43 -64.1907      44 -63.3149      45 -63.3149
      46 -63.8500      47 -63.3149      48 -64.2107

 E-fermi :   2.1299     XC(G=0):  -8.5229     alpha+bet : -7.7399

 k-point     1 :       0.0000    0.0000    0.0000
  band No.  band energies     occupation
      1     -29.6999      2.00000
      2     -29.6999      2.00000
      3     -29.6754      2.00000
      4     -29.6753      2.00000
      5     -29.5582      2.00000
      6     -29.5581      2.00000
      7     -29.5509      2.00000
      8     -29.5509      2.00000
      9     -29.5343      2.00000
     10     -29.5343      2.00000
     11     -29.5214      2.00000
     12     -29.5214      2.00000
     13     -29.4651      2.00000
     14     -29.4651      2.00000
     15     -29.4539      2.00000
     16     -29.4539      2.00000
     17     -29.3714      2.00000
     18     -29.3713      2.00000
     19     -29.3647      2.00000
     20     -29.3647      2.00000
     21     -29.3361      2.00000
     22     -29.3360      2.00000
     23     -29.2860      2.00000
     24     -29.2860      2.00000
     25     -29.2564      2.00000
     26     -29.2563      2.00000
     27     -29.2539      2.00000
     28     -29.2539      2.00000
     29     -29.0879      2.00000
     30     -29.0879      2.00000
     31     -29.0788      2.00000
     32     -29.0788      2.00000
     33     -29.0270      2.00000
     34     -29.0270      2.00000
     35     -29.0220      2.00000
     36     -29.0220      2.00000
     37     -19.3215      2.00000
     38     -19.3213      2.00000
     39     -19.3197      2.00000
     40     -19.3194      2.00000
     41     -13.7390      2.00000
     42     -13.6953      2.00000
     43     -13.6417      2.00000
     44     -13.5950      2.00000
     45     -13.4063      2.00000
     46     -13.3955      2.00000
     47     -13.3631      2.00000
     48     -13.3599      2.00000
     49     -13.2952      2.00000
     50     -13.2898      2.00000
     51     -13.2787      2.00000
     52     -13.2745      2.00000
     53     -13.1743      2.00000
     54     -13.1648      2.00000
     55     -13.0957      2.00000
     56     -13.0947      2.00000
     57     -12.9073      2.00000
     58     -12.9072      2.00000
     59     -12.7997      2.00000
     60     -12.7996      2.00000
[...]
    218       4.4915     -0.00000
    219       4.5441     -0.00000
    220       4.5462     -0.00000
    221       4.7117     -0.00000
    222       4.7377     -0.00000
    223       4.7555     -0.00000
    224       4.7610     -0.00000
    225       4.7861     -0.00000
    226       4.8003     -0.00000
    227       4.8080     -0.00000
    228       4.8753     -0.00000
    229       4.9269     -0.00000
    230       5.0264     -0.00000
    231       5.0584     -0.00000
    232       5.1206     -0.00000

 soft charge-density along one line, spin component           1
         0         1         2         3         4         5         6         7         8         9
 total charge-density along one line

------------------------ aborting loop because EDIFF is reached ----------------------------------------

  FORCE on cell =-STRESS in cart. coord.  units (eV):
  Direction    XX          YY          ZZ          XY          YZ          ZX
  Alpha Z  1398.37696  1398.37696  1398.37696
  Ewald   -6310.08690 -1070.03530 -7965.73926    -0.00003   -30.11074     0.00018
  Hartree  2267.23931  6908.09194   859.92000    -0.00005   -20.38901    -0.00002
  E(xc)   -1528.75027 -1529.10939 -1529.18156    -0.00000     0.03833    -0.00000
  Local   -2052.15740-11962.28803   979.60941     0.00010    49.90766    -0.00013
  n-local  1241.81742  1242.34271  1240.48206     0.00002     0.00105    -0.00002
  augment    33.76161    30.80828    35.86549    -0.00000    -0.04912    -0.00001
  Kinetic  4946.78540  5014.71402  4977.08527     0.00000     0.10986     0.00004
  Fock        0.00000     0.00000     0.00000     0.00000     0.00000     0.00000
  Total      -3.01388    32.90120    -3.58163     0.00000    -0.49196     0.00000
  in kB      -3.35041    36.57496    -3.98155     0.00000    -0.54690     0.00000

 VOLUME and BASIS-vectors are now :
  energy-cutoff  :      500.00
  volume of cell :     1441.25
      direct lattice vectors                 reciprocal lattice vectors
    19.572162628  0.000000000  0.000000000     0.051092974  0.000000000  0.000000000
     0.000000000  7.160604000  0.000000000     0.000000000  0.139653024 -0.018854176
     0.000000000  1.388376246 10.283713099     0.000000000  0.000000000  0.097241141

  length of vectors
    19.572162628  7.160604000 10.377010345     0.051092974  0.140920002  0.097241141

 FORCES acting on ions
    electron-ion (+dipol)            ewald-force                    non-local-force                 convergence-correction
   -.498E+02 0.416E+01 0.149E+02   0.497E+02 -.429E+01 -.152E+02   0.130E+00 0.111E+00 -.434E-02   0.493E-02 0.143E-02 -.217E-01
   0.498E+02 0.416E+01 0.149E+02   -.497E+02 -.429E+01 -.152E+02   -.130E+00 0.111E+00 -.434E-02   -.492E-02 0.143E-02 -.217E-01
   -.498E+02 -.416E+01 -.149E+02   0.497E+02 0.429E+01 0.152E+02   0.130E+00 -.111E+00 0.434E-02   0.490E-02 -.143E-02 0.217E-01
   0.498E+02 -.416E+01 -.149E+02   -.497E+02 0.429E+01 0.152E+02   -.130E+00 -.111E+00 0.434E-02   -.490E-02 -.143E-02 0.217E-01
   -.273E+03 0.129E+03 0.197E+03   0.273E+03 -.128E+03 -.197E+03   0.392E+00 -.115E+01 -.296E+00   0.976E-02 -.851E-02 -.760E-01
   0.268E+03 -.127E+03 0.190E+03   -.268E+03 0.126E+03 -.190E+03   -.339E+00 0.112E+01 -.158E+00   -.726E-02 0.290E-02 -.828E-01
   0.268E+03 0.127E+03 -.190E+03   -.268E+03 -.126E+03 0.190E+03   -.339E+00 -.112E+01 0.158E+00   -.727E-02 -.290E-02 0.827E-01
   0.273E+03 0.129E+03 0.197E+03   -.273E+03 -.128E+03 -.197E+03   -.392E+00 -.115E+01 -.296E+00   -.977E-02 -.851E-02 -.760E-01
   -.187E+03 -.189E+01 0.412E+03   0.187E+03 0.192E+01 -.411E+03   0.218E+00 -.880E-02 -.315E+00   0.302E-01 0.657E-02 0.298E-01
   0.187E+03 0.189E+01 -.412E+03   -.187E+03 -.192E+01 0.411E+03   -.218E+00 0.880E-02 0.315E+00   -.301E-01 -.658E-02 -.298E-01
   -.273E+03 -.129E+03 -.197E+03   0.273E+03 0.128E+03 0.197E+03   0.392E+00 0.115E+01 0.296E+00   0.979E-02 0.851E-02 0.760E-01
   0.187E+03 -.189E+01 0.412E+03   -.187E+03 0.192E+01 -.411E+03   -.218E+00 -.880E-02 -.315E+00   -.302E-01 0.657E-02 0.298E-01
   0.273E+03 -.129E+03 -.197E+03   -.273E+03 0.128E+03 0.197E+03   -.392E+00 0.115E+01 0.296E+00   -.979E-02 0.851E-02 0.760E-01
   -.187E+03 0.189E+01 -.412E+03   0.187E+03 -.192E+01 0.411E+03   0.218E+00 0.880E-02 0.315E+00   0.301E-01 -.657E-02 -.298E-01
   -.268E+03 -.127E+03 0.190E+03   0.268E+03 0.126E+03 -.190E+03   0.339E+00 0.112E+01 -.158E+00   0.724E-02 0.290E-02 -.828E-01
   -.268E+03 0.127E+03 -.190E+03   0.268E+03 -.126E+03 0.190E+03   0.339E+00 -.112E+01 0.158E+00   0.727E-02 -.289E-02 0.828E-01
   -.168E+03 -.574E+00 -.774E+02   0.168E+03 0.545E+00 0.802E+02   -.757E+00 0.252E-01 -.246E+01   0.193E-01 0.434E-03 -.655E-01
   -.168E+03 0.574E+00 0.774E+02   0.168E+03 -.545E+00 -.802E+02   -.757E+00 -.252E-01 0.246E+01   0.193E-01 -.433E-03 0.655E-01
   0.168E+03 -.574E+00 -.774E+02   -.168E+03 0.545E+00 0.802E+02   0.757E+00 0.252E-01 -.246E+01   -.193E-01 0.435E-03 -.655E-01
   0.168E+03 0.574E+00 0.774E+02   -.168E+03 -.545E+00 -.802E+02   0.757E+00 -.252E-01 0.246E+01   -.193E-01 -.435E-03 0.655E-01
   -.961E+00 0.130E+00 -.291E+03   0.972E+00 -.133E+00 0.293E+03   -.294E-02 0.104E-01 -.173E+01   0.364E-03 -.849E-04 0.403E-01
   -.230E+03 -.120E+02 -.227E+03   0.231E+03 0.121E+02 0.228E+03   -.156E+01 -.844E-01 -.100E+01   -.159E-01 0.125E-02 -.595E-02
   0.961E+00 0.130E+00 -.291E+03   -.972E+00 -.133E+00 0.293E+03   0.294E-02 0.104E-01 -.173E+01   -.372E-03 -.869E-04 0.403E-01
   0.315E+03 -.110E+03 0.128E+03   -.316E+03 0.111E+03 -.128E+03   0.127E+01 -.879E+00 0.409E+00   -.262E-01 0.227E-01 0.322E-01
   0.111E+03 0.230E+01 -.156E+03   -.111E+03 -.234E+01 0.157E+03   0.420E+00 0.453E-01 -.112E+01   -.219E-01 0.263E-03 0.340E-01
   -.309E+03 0.110E+03 0.134E+03   0.310E+03 -.111E+03 -.134E+03   -.124E+01 0.880E+00 0.446E+00   0.331E-01 -.237E-01 0.287E-01
   -.111E+03 0.230E+01 -.156E+03   0.111E+03 -.234E+01 0.157E+03   -.420E+00 0.453E-01 -.112E+01   0.219E-01 0.264E-03 0.340E-01
   -.655E+01 0.766E+00 0.375E+03   0.669E+01 -.840E+00 -.377E+03   -.146E+00 0.743E-01 0.191E+01   0.623E-03 0.891E-03 0.259E-01
   -.961E+00 -.130E+00 0.291E+03   0.972E+00 0.133E+00 -.293E+03   -.294E-02 -.104E-01 0.173E+01   0.366E-03 0.856E-04 -.403E-01
   -.111E+03 -.230E+01 0.156E+03   0.111E+03 0.234E+01 -.157E+03   -.420E+00 -.453E-01 0.112E+01   0.219E-01 -.265E-03 -.340E-01
   0.230E+03 -.120E+02 -.227E+03   -.231E+03 0.121E+02 0.228E+03   0.156E+01 -.844E-01 -.100E+01   0.160E-01 0.125E-02 -.596E-02
   0.315E+03 0.110E+03 -.128E+03   -.316E+03 -.111E+03 0.128E+03   0.127E+01 0.879E+00 -.409E+00   -.262E-01 -.227E-01 -.322E-01
   0.961E+00 -.130E+00 0.291E+03   -.972E+00 0.133E+00 -.293E+03   0.294E-02 -.104E-01 0.173E+01   -.367E-03 0.863E-04 -.403E-01
   -.315E+03 0.110E+03 -.128E+03   0.316E+03 -.111E+03 0.128E+03   -.127E+01 0.879E+00 -.409E+00   0.262E-01 -.227E-01 -.322E-01
   0.230E+03 0.120E+02 0.227E+03   -.231E+03 -.121E+02 -.228E+03   0.156E+01 0.844E-01 0.100E+01   0.160E-01 -.125E-02 0.595E-02
   -.230E+03 0.120E+02 0.227E+03   0.231E+03 -.121E+02 -.228E+03   -.156E+01 0.844E-01 0.100E+01   -.160E-01 -.125E-02 0.595E-02
   0.111E+03 -.230E+01 0.156E+03   -.111E+03 0.234E+01 -.157E+03   0.420E+00 -.453E-01 0.112E+01   -.219E-01 -.266E-03 -.340E-01
   0.655E+01 -.767E+00 -.375E+03   -.669E+01 0.839E+00 0.377E+03   0.146E+00 -.743E-01 -.191E+01   -.626E-03 -.890E-03 -.259E-01
   -.309E+03 -.110E+03 -.134E+03   0.310E+03 0.111E+03 0.134E+03   -.124E+01 -.880E+00 -.446E+00   0.331E-01 0.237E-01 -.287E-01
   0.211E+03 0.111E+02 -.181E+03   -.212E+03 -.111E+02 0.182E+03   0.115E+01 0.503E-01 -.762E+00   0.113E-01 -.181E-02 -.408E-02
   0.309E+03 -.110E+03 -.134E+03   -.310E+03 0.111E+03 0.134E+03   0.124E+01 -.880E+00 -.446E+00   -.331E-01 0.237E-01 -.287E-01
   0.655E+01 0.766E+00 0.375E+03   -.669E+01 -.840E+00 -.377E+03   0.146E+00 0.743E-01 0.191E+01   -.632E-03 0.892E-03 0.259E-01
   -.315E+03 -.110E+03 0.128E+03   0.316E+03 0.111E+03 -.128E+03   -.127E+01 -.879E+00 0.409E+00   0.263E-01 0.227E-01 0.322E-01
   -.211E+03 -.111E+02 0.181E+03   0.212E+03 0.111E+02 -.182E+03   -.115E+01 -.503E-01 0.762E+00   -.114E-01 0.181E-02 0.407E-02
   0.211E+03 -.111E+02 0.181E+03   -.212E+03 0.111E+02 -.182E+03   0.115E+01 -.503E-01 0.762E+00   0.114E-01 0.180E-02 0.407E-02
   -.655E+01 -.766E+00 -.375E+03   0.669E+01 0.840E+00 0.377E+03   -.146E+00 -.743E-01 -.191E+01   0.628E-03 -.893E-03 -.259E-01
   -.211E+03 0.111E+02 -.181E+03   0.212E+03 -.111E+02 0.182E+03   -.115E+01 0.503E-01 -.762E+00   -.113E-01 -.181E-02 -.407E-02
   0.309E+03 0.110E+03 0.134E+03   -.310E+03 -.111E+03 -.134E+03   0.124E+01 0.880E+00 0.446E+00   -.331E-01 -.237E-01 0.287E-01
   0.155E-02 0.532E-03 -.205E-02   -.853E-12 -.171E-12 0.483E-12   0.222E-15 0.777E-15 0.000E+00   -.473E-04 -.419E-05 0.538E-05

 POSITION                                       TOTAL-FORCE (eV/Angst)
      7.93068      6.73267      9.09697         0.006661     -0.018068     -0.277955
      1.85540      3.15237      9.09697        -0.006661     -0.018068     -0.277955
     17.71676      5.39661      1.18674         0.006661      0.018068      0.277955
     11.64148      1.81631      1.18674        -0.006661      0.018068      0.277955
     16.19958      1.76817      5.95167         0.352090     -0.531211      0.014283
     13.15797      1.07211      5.95660        -0.301798      0.540225      0.036698
      3.37189      3.89657      4.32711        -0.301798     -0.540225     -0.036698
     13.15866      5.34847      5.95167        -0.352090     -0.531211      0.014283
      6.46128      1.76834      1.79542         0.165328      0.026090      0.135719
     13.11088      6.78064      8.48829        -0.165328     -0.026090     -0.135719
      6.41350      3.20051      4.33205         0.352090      0.531211     -0.014283
      3.32480      5.34864      1.79542        -0.165328      0.026090      0.135719
      3.37258      6.78081      4.33205        -0.352090      0.531211     -0.014283
     16.24736      3.20034      8.48829         0.165328     -0.026090     -0.135719
     16.20027      4.65241      5.95660         0.301798      0.540225      0.036698
      6.41419      7.47687      4.32711         0.301798     -0.540225     -0.036698
     14.92015      6.78842      6.92361        -0.607691     -0.003792      0.207472
      5.13407      5.34086      3.36010        -0.607691      0.003792     -0.207472
     14.43809      3.20812      6.92361         0.607691     -0.003792      0.207472
      4.65201      1.76056      3.36010         0.607691      0.003792     -0.207472
     14.68075      1.40615      9.83560         0.008237      0.006853     -0.172598
      8.10217      1.75651      5.70986        -0.278812     -0.013613     -0.183114
     14.67750      4.98645      9.83560        -0.008237      0.006853     -0.172598
      1.55466      7.13240      2.47606         0.177753      0.015231      0.084578
     11.71533      5.38457      0.58884         0.052665      0.001640     -0.330207
      8.22303      7.13289      2.45774        -0.175872     -0.015635      0.089005
     17.64292      1.80427      0.58884        -0.052665      0.001640     -0.330207
     14.68245      1.40979      3.79617        -0.007338      0.002165      0.182071
      4.89467      3.56253      0.44811         0.008237     -0.006853      0.172598
      7.85683      3.16441      9.69488        -0.052665     -0.001640      0.330207
      1.68391      5.33681      5.70986         0.278812     -0.013613     -0.183114
     11.34074      4.99688      7.80765         0.177753     -0.015231     -0.084578
      4.89142      7.14283      0.44811        -0.008237     -0.006853      0.172598
     18.01751      1.41658      7.80765        -0.177753     -0.015231     -0.084578
     11.46999      6.79247      4.57386         0.278812      0.013613      0.183114
     17.88825      3.21217      4.57386        -0.278812      0.013613      0.183114
      1.92925      6.74471      9.69488         0.052665     -0.001640      0.330207
      4.88971      7.13919      6.48754         0.007338     -0.002165     -0.182071
     18.00911      4.99639      7.82598        -0.175872      0.015635     -0.089005
      1.97687      1.76145      5.48648        -0.019561      0.026812      0.090741
     11.34913      1.41609      7.82598         0.175872      0.015635     -0.089005
     14.67579      4.99009      3.79617         0.007338      0.002165      0.182071
      8.23143      3.55210      2.47606        -0.177753      0.015231      0.084578
     17.59529      6.78753      4.79723         0.019561     -0.026812     -0.090741
     11.76295      3.20723      4.79723        -0.019561     -0.026812     -0.090741
      4.89637      3.55889      6.48754        -0.007338     -0.002165     -0.182071
      7.80921      5.34175      5.48648         0.019561      0.026812      0.090741
      1.56305      3.55259      2.45774         0.175872     -0.015635      0.089005
    total drift:                                0.001502      0.000528     -0.002042

  FREE ENERGIE OF THE ION-ELECTRON SYSTEM (eV)
  free  energy   TOTEN  =      -237.75633251 eV

  energy  without entropy=     -237.80836755  energy(sigma->0) =     -237.77367753

 writing wavefunctions